H  N  F  Si I 
 1.0000000000000000
    11.6535095964130004    0.0000000000000000    0.0000000000000000
     0.0000000000000000   10.0922353537399996    0.0000000000000000
     0.0000000000000000    0.0000000000000000   40.0000000000000000
 H   N   F   Si  I  
  74  16  35   8   5
Cartesian
  6.6680099999999998  9.6065400000000007  0.5000000000000000
  8.7981200000000008  5.6302000000000003  6.4529300000000003
  3.1654499999999999  6.1369600000000002  6.0831400000000002
  4.6557899999999997  0.1270250000000000  5.4247800000000002
  5.8267499999999997  0.0000000000000000  1.8667600000000000
  8.7401300000000006  5.0461200000000002  1.8667600000000000
  5.8267499999999997  3.3640800000000000  2.4321600000000001
  8.7401300000000006  8.4101999999999997  2.4321600000000001
  2.9133800000000001  8.4101999999999997  2.4321600000000001
  9.5813900000000007  4.5604199999999997  0.5000000000000000
  3.7546300000000001  4.5604199999999997  0.5000000000000000
  2.6412700000000000  3.1128100000000001  9.2295999999999996
  7.8124200000000004  2.2292600000000000  8.6161300000000001
  1.9968699999999999 -4.6531399999999996 10.9472000000000005
  7.0890899999999997  7.1677600000000004 12.5480000000000000
 -0.2108470000000000  6.8803799999999997  9.8935999999999993
  0.0537271000000000  0.2517010000000000 15.7822999999999993
  5.9201699999999997  8.1401100000000000  8.4972499999999993
  7.8822200000000002 -1.4610700000000001 11.4293999999999993
  5.8530300000000004 -0.4880320000000000  6.4212999999999996
  7.9012099999999998  7.9258499999999996  3.8043100000000001
  0.0000000000000000  3.3640800000000000  2.4321600000000001
  3.5372800000000000  5.8404900000000000 12.2141000000000002
  6.2309099999999997 10.8916000000000004  5.4340200000000003
  0.2677470000000000  9.7248800000000006  6.4923999999999999
  4.3889800000000001  7.7617500000000001  9.2132100000000001
 10.9952000000000005  6.0170700000000004  8.6139299999999999
  2.5933600000000001  1.5708599999999999  9.9048900000000000
  0.0000000000000000  4.3327799999999996  3.8043100000000001
 -1.1961999999999999 -0.0332776000000000  5.5320700000000000
  1.9568700000000001  1.8726300000000000  8.3653600000000008
  5.3182299999999998  6.4882000000000000  8.5162899999999997
  9.4023299999999992  2.3720699999999999  9.1530400000000007
  8.4236500000000003  5.4829200000000000  4.9431000000000003
  2.9133800000000001  5.0461200000000002  1.8667600000000000
  8.7401300000000006  9.3788999999999998  3.8043100000000001
 -0.8758700000000000  7.7394699999999998  8.5622299999999996
  0.0000000000000000  0.0000000000000000  1.8667600000000000
  0.8412560000000000  9.6065400000000007  0.5000000000000000
  5.8779399999999997  7.1865699999999997  9.9115000000000002
  0.6479560000000000  6.9908099999999997  8.4381500000000003
  8.9757300000000004  1.4481100000000000  7.8913200000000003
  4.9878299999999998  2.8797299999999999  3.8043100000000001
  6.7339700000000002  4.4171500000000004  9.6314799999999998
  5.8267499999999997  4.3327799999999996  3.8043100000000001
  4.9855000000000000  9.6065400000000007  0.5000000000000000
 10.8123000000000005  9.6065400000000007  0.5000000000000000
  2.0721200000000000  4.5604199999999997  0.5000000000000000
  7.8988800000000001  4.5604199999999997  0.5000000000000000
  3.7523000000000000  7.9258499999999996  3.8043100000000001
  8.7401300000000006  6.0175200000000002  0.5000000000000000
  8.5792199999999994  0.9541710000000000  9.4655400000000007
  1.7829699999999999  5.7326800000000002  5.2683600000000004
 11.7469999999999999  0.9579080000000000  5.6240300000000003
  5.9249400000000003 -0.7485860000000000  4.8140700000000001
  0.8389200000000000  2.8797299999999999  3.8043100000000001
  0.0000000000000000  0.9713990000000000  0.5000000000000000
  5.8267499999999997  0.9713990000000000  0.5000000000000000
  2.0744600000000002  7.9258499999999996  3.8043100000000001
 13.4139999999999997 -0.9528920000000000 16.4521000000000015
  3.6113200000000001  1.8124800000000001  8.5212599999999998
 10.5937999999999999 -2.8575200000000001 13.8080999999999996
 10.8146000000000004  2.8797299999999999  3.8043100000000001
  6.9030500000000004  2.1136499999999998 14.6433000000000000
 23.0406000000000013  1.6190500000000001 14.1174999999999997
  2.9133800000000001  6.0175200000000002  0.5000000000000000
  8.9138099999999998  4.0540799999999999  5.8627900000000004
  7.4233700000000002  4.7962999999999996  6.1521400000000002
  2.2740600000000000  4.7454499999999999  6.5841000000000003
  9.5790500000000005  7.9258499999999996  3.8043100000000001
  2.9133800000000001  9.3788999999999998  3.8043100000000001
  6.6656700000000004  2.8797299999999999  3.8043100000000001
  0.3249770000000000 -0.4824910000000000  4.7673199999999998
  3.0912799999999998  4.7153000000000000  5.0749500000000003
  8.7401300000000006  8.4101999999999997  3.4593900000000000
  0.0000000000000000  3.3640800000000000  3.4593900000000000
  5.8267499999999997  3.3640800000000000  3.4593900000000000
  2.7107299999999999  2.0926000000000000  9.0146400000000000
  8.6975599999999993  1.7279700000000000  8.7822899999999997
 -0.2756160000000000  6.9377199999999997  8.8730799999999999
  2.5567600000000001  5.3247700000000000  5.7782600000000004
  5.6535200000000003 -0.0393498000000000  5.5247799999999998
  5.3952000000000000  7.3912000000000004  9.0319599999999998
  0.0000000000000000  0.0000000000000000  0.8416300000000000
  2.9133800000000001  8.4101999999999997  3.4593900000000000
  8.7401300000000006  5.0461200000000002  0.8416300000000000
  2.9133800000000001  5.0461200000000002  0.8416300000000000
  5.8267499999999997  0.0000000000000000  0.8416300000000000
 -0.1362490000000000 -0.0018424900000000  5.5676899999999998
  8.3914899999999992  4.9578699999999998  5.8406900000000004
 11.6791999999999998 -2.5286900000000001 11.8230000000000004
 13.5292999999999992 -1.2065900000000001 13.0950000000000006
 13.3400999999999996  1.0373300000000001 11.8202999999999996
 11.1989000000000001 -0.3015030000000000 10.2600999999999996
  8.9768699999999999  3.6259299999999999 12.3977000000000004
 10.1479999999999997  5.6468800000000003 13.3674999999999997
 14.0795999999999992 -1.5998300000000001 16.3517000000000010
  6.8680199999999996  7.6308299999999996 11.6806000000000001
  1.2063699999999999 -5.1858599999999999 10.8721999999999994
 10.5275999999999996 -2.2799700000000001 14.5791000000000004
  4.5591699999999999 -0.4844390000000000 12.3721999999999994
  7.5349199999999996  6.6960699999999997 13.6356000000000002
  3.8921999999999999  5.9346899999999998 13.5413999999999994
  1.2974900000000000  5.4818199999999999 13.7848000000000006
  1.5560499999999999  4.9219200000000001 16.5563000000000002
  0.4263230000000000 -0.0631282000000000 16.6536000000000008
  4.3959900000000003  1.8279399999999999 11.1796000000000006
  5.4408200000000004  1.9821899999999999 13.5408000000000008
  4.2259200000000003  5.0033399999999997 16.2329000000000008
 10.1243999999999996  5.3058800000000002 10.7597000000000005
  8.4042700000000004 -0.6323780000000000 11.3181999999999992
  3.2637399999999999  5.9964899999999997 11.2483000000000004
 10.8775999999999993  2.8621699999999999 13.7553000000000001
 13.4221000000000004 -1.1690600000000000 10.4669000000000008
  2.9826400000000000  3.7046299999999999 14.6796000000000006
  8.5757200000000005  6.4514300000000002 16.4106999999999985
 10.8240999999999996  2.8056800000000002 10.6830999999999996
  6.4523200000000003  5.1374199999999997 10.1405999999999992
  7.5507900000000001  8.9939999999999998 16.7962999999999987
  6.7300800000000001  9.0692599999999999 14.1933000000000007
  6.2218799999999996  7.0294600000000003 15.7288999999999994
  6.9284699999999999  2.2345000000000002 11.1640999999999995
 23.5091000000000001  0.7695470000000000 14.3452000000000002
  5.8527800000000001  0.1617300000000000 10.1861999999999995
  7.7880300000000000  1.9729800000000000 15.0378000000000007
 -0.0977359000000000  3.4203399999999999  6.9155600000000002
  0.0000000000000000  6.7281599999999999  2.2987899999999999
  8.7401300000000006  1.6820400000000000  2.2987899999999999
  5.3531199999999997  3.1043500000000002  7.0893699999999997
  8.4915199999999995  8.3815700000000000  6.9464499999999996
  2.5320900000000002  8.6673399999999994  7.0468999999999999
  5.8267499999999997  6.7281599999999999  2.2987899999999999
  2.9133800000000001  1.6820400000000000  2.2987899999999999
  7.8450100000000003  7.8910999999999998 15.2879000000000005
  5.8645300000000002  0.8996940000000000 11.9596000000000000
 12.2771000000000008 -0.6388800000000000 11.8263999999999996
  2.7163599999999999  5.5045599999999997 15.1629000000000005
 10.7432999999999996  4.1820300000000001 12.1814000000000000
