H  N  F  Si I 
 1.0000000000000000
    11.6531699554687993    0.0000000000000000    0.0000000000000000
     0.0000000000000000   10.0919412160536002    0.0000000000000000
     0.0000000000000000    0.0000000000000000   30.0000000000000000
 H   N   F   Si  I  
  65  16  54   8   1
Selective dynamics
Cartesian
  3.7542277485186357  4.5604564094959974  0.5000000000000000   F   F   F
  8.7398774666016177  6.0169990050883788  0.5000000000000000   F   F   F
  0.8377148099836284  2.8803255343030250  3.8038507225754685   F   F   F
  8.7398774666016177  5.0459706080267921  1.8692122630551729   F   F   F
  0.0000000000000379  0.9710283970615677  0.5000000000000000   F   F   F
  5.8265849777344005  0.0000000000000000  1.8692122630551729   F   F   F
  4.9227913856491829 10.4831728452969184 13.5048963739373811   T   T   T
  8.7398774666016177  8.4099510133779987  2.4334301740582331   F   F   F
  4.9888701677508447  2.8803255343030250  3.8038507225754685   F   F   F
 11.0178690262820567  7.5026347397623869  8.6107136474780877   T   T   T
  9.5808127262530363  4.5604564094959974  0.5000000000000000   F   F   F
  2.9132924888672185  8.4099510133779987  2.4334301740582331   F   F   F
  6.2767990511545726  9.1423313604778134  5.8094942506259795   T   T   T
  6.6642997877180274  2.8803255343030250  3.8038507225754685   F   F   F
  3.2523085438800439  1.0422384501945026  9.1077577274209904   T   T   T
  9.5775922765852108  7.9262961423298357  3.8038507225754685   F   F   F
  5.8265849777344370  0.9710283970615677  0.5000000000000000   F   F   F
  4.8220064999543348 -0.1096057346501304  5.5515800206204471   T   T   T
  4.6447806942423906  7.0194750640158565  8.7332437735873256   T   T   T
 10.8154551454852452  2.8803255343030250  3.8038507225754685   F   F   F
  1.8085957357968976  1.7221527790479947  8.4979745306063084   T   T   T
  6.2464621041977590  7.5569251747843591  8.5718265103295295   T   T   T
  5.7443409046372196  6.1012553510433740  7.8460534068635344   T   T   T
 -0.0503020739553676  6.8452686490223353  7.2174285475486197   T   T   T
  0.3807430329927218 -0.4456904822829045  6.5236909584077560   T   T   T
  2.9910458971402663  1.1387351174814657  7.4665370192953757   T   T   T
  3.2962370039771818  2.5421573846902388  8.3505616800103049   T   T   T
  8.4462825165964102  1.1804895757349556  9.5173881803944838   T   T   T
  8.4133659613478482  2.5220900067356053  8.5087047752477183   T   T   T
  2.9132924888672185  9.3772607554743246  3.8038507225754685   F   F   F
  8.2284850752851835  5.4946140747949599  4.8695647779929381   T   T   T
  5.8265849777344370  3.3639804053511888  2.4334301740582331   F   F   F
  0.0000000000000379  3.3639804053511888  2.4334301740582331   F   F   F
  2.9132924888672185  5.0459706080267921  1.8692122630551729   F   F   F
  0.0545082781636356  9.4953334243857732  4.8836188806649217   T   T   T
  0.0000000000000009  0.0000000000000000  1.8692122630551729   F   F   F
  3.4812836771067643  5.9127820344928299  5.8481019078457583   T   T   T
  7.9021626566180254  7.9262961423298357  3.8038507225754685   F   F   F
 -0.4932002301353260  5.7964846285928102  8.4350169769417640   T   T   T
  5.8995239481771726  6.1785927064379473  9.5052988516024186   T   T   T
  0.8409352596514178  9.6064270175228081  0.5000000000000000   F   F   F
  6.6675202373858173  9.6064270175228081  0.5000000000000000   F   F   F
  2.9132924888672185  6.0169990050883788  0.5000000000000000   F   F   F
  0.3692365829308525  0.9310177385861756  5.5795734788743605   T   T   T
  3.7510072988508103  7.9262961423298357  3.8038507225754685   F   F   F
 10.5729959663963218  0.1199803171492505  5.8976406963702841   T   T   T
  9.8976125739773089  1.7751503359959444  8.8272447937513707   T   T   T
 10.8122346958174198  9.6064270175228099  0.5000000000000000   F   F   F
  2.0723572292158399  4.5604564094960001  0.5000000000000000   F   F   F
  7.8989422069502391  4.5604564094960001  0.5000000000000000   F   F   F
  0.9204394196259700  6.7629337860536234  8.5521382565065398   T   T   T
  8.2605081085004990  4.1039543615239795  5.8096878358055379   T   T   T
  2.0755776788836262  7.9262961423298357  3.8038507225754685   F   F   F
  3.5340758274474964  4.2307231893026218  5.5978409293718672   T   T   T
  2.2901444569139038  4.8906638695223439  6.4893412522120757   T   T   T
  8.5170344804002855  5.6138042551090619  6.5283235480008974   T   T   T
  5.9880338017168251  0.5467057666256956  6.5496981809991954   T   T   T
  4.9856497180830210  9.6064270175228099  0.5000000000000000   F   F   F
  2.3564215624881051  5.1941776591180808  4.8333150013733226   T   T   T
  9.6971434079247825  4.9575356544491616  5.5382352800560017   T   T   T
  8.7658838018725191  0.9955596936187300  7.8711408315455991   T   T   T
  6.2806996827604173  0.4505532377446750  4.8889878540987421   T   T   T
  8.7398774666016177  9.3772607554743246  3.8038507225754685   F   F   F
  0.0000000000000379  4.3312901474475138  3.8038507225754685   F   F   F
  5.8265849777344370  4.3312901474475138  3.8038507225754685   F   F   F
  2.9188243301736749  5.0565665506408077  5.6826443011013792   T   T   T
 -0.0629177595291172  6.7223651461573128  8.2403979580271631   T   T   T
  0.0000000000000009  0.0000000000000000  0.8425449303043500   F   F   F
  5.8265849777344370  3.3639804053511888  3.4597557168440631   F   F   F
  5.6307678261998246  6.7202462337312641  8.6784367122869064   T   T   T
  2.9132924888672185  8.4099510133779987  3.4597557168440631   F   F   F
  8.8870999552328467  1.6185896234137387  8.6940122173294654   T   T   T
  8.6774988966947131  5.0424598700003296  5.6757456015921921   T   T   T
 -0.0721128399338654  0.0031494853776884  5.7095269685650649   T   T   T
  8.7398774666016177  8.4099510133779987  3.4597557168440631   F   F   F
  5.8265849777344005  0.0000000000000000  0.8425449303043500   F   F   F
  2.8311484880933939  1.6171171401238684  8.3644688836446033   T   T   T
  2.9132924888672185  5.0459706080267921  0.8425449303043500   F   F   F
  8.7398774666016177  5.0459706080267921  0.8425449303043500   F   F   F
  5.8395887500831716 -0.0159348104205673  5.6910369003124535   T   T   T
  0.0000000000000379  3.3639804053511888  3.4597557168440631   F   F   F
  7.0472305734970480  6.0232207474037214  3.3003459413423974   F   F   F
  1.6935230144008373  2.3862244371080581  1.3160654148748374   F   F   F
  8.7398774666016177  3.0914703292729544  3.3003459413423974   F   F   F
  2.9132924888672180  3.0914703292729544  3.3003459413423974   F   F   F
  0.0000000000000366  8.1374409372997452  3.3003459413423974   F   F   F
  7.4946536274374660  7.8939865886887501  6.0111179563158119   T   T   T
  9.9605230623642314  0.9772501393769296  3.3003459413423974   F   F   F
  4.5868267770044699  9.7898218754337947 14.0637673234854894   T   T   T
  0.0000000000000379  5.3194923418374893  1.3160654148748374   F   F   F
  5.6030402662573930  1.6464275843586704 12.8491530389343787   T   T   T
 10.5528145339881156  4.1853402965196480  8.2141683861214858   T   T   T
  4.1339380846298308  0.9772501393769296  3.3003459413423974   F   F   F
  4.0765960657588307  7.5708045051886357  6.2057175699924283   T   T   T
  9.9056756204967389  7.8073962061658282  6.1871972298631235   T   T   T
  1.0218828325822582  2.5439984896182035  6.0535643845796203   T   T   T
  1.2197694744664185  7.4321950451348506  1.3160654148748374   F   F   F
  8.7398774666016177  0.2735217338106973  1.3160654148748374   F   F   F
  4.1330619633336001  2.3862244371080585  1.3160654148748374   F   F   F
  4.0081700214144842  9.0550468055351327  8.1409195881400365   T   T   T
  7.0039373962621880  3.5309265053305556 11.8208877531608483   T   T   T
  1.5602863448019455  9.1822966773621726  7.9180323298845119   T   T   T
  4.6531368150664285  3.7604306196142390  8.4011658266199820   T   T   T
  4.6059393819718260  6.0232207474037214  3.3003459413423974   F   F   F
  7.5192318708390076  0.9772501393769297  3.3003459413423974   F   F   F
 10.2823376679163978  2.6052618646334036  6.3775057869508469   T   T   T
  9.7786361439057536  8.7714015527524190  8.4357751632914617   T   T   T
  7.5201079921352374  2.3862244371080581  1.3160654148748374   F   F   F
  5.8265849777344370  5.3194923418374893  1.3160654148748374   F   F   F
  4.3374683062525223  0.9559852330381593 10.7524040459686923   T   T   T
  4.3446835848118308  3.5218765593027146 11.6137880534762097   T   T   T
  7.1896670753815162  0.9956302242992917 10.9332409315011585   T   T   T
  7.3574365907763353  8.8425800573088953  8.2278090792501910   T   T   T
  8.5337463595149945  6.7341189482324202  7.8787901212878948   T   T   T
  5.8513026675558173  4.9049572661322003  6.6137206630896284   T   T   T
  4.6240383256584403  2.8615885880273497  6.1339857419101076   T   T   T
  8.7614594068455016  9.9165014037923171  6.5441402437608964   T   T   T
  1.3066437845849079  4.1459150106042797  7.8261117495581471   T   T   T
  7.0793135717577682  3.7538065204760644  8.3751918347844239   T   T   T
  3.0164380894504759  9.7700915152304919  6.0550822777302269   T   T   T
  1.2206455957626490  6.0232207474037214  3.3003459413423974   F   F   F
  2.9132924888672185  0.2735217338106973  1.3160654148748374   F   F   F
  5.8614584250884816  1.7133094890478675  7.8952488993882612   T   T   T
  9.9596469410679997  2.3862244371080585  1.3160654148748374   F   F   F
  7.0463544522008181  7.4321950451348506  1.3160654148748374   F   F   F
 10.4325243597062247  6.0232207474037214  3.3003459413423974   F   F   F
  1.6926468931046077  0.9772501393769297  3.3003459413423974   F   F   F
  2.7232816486877791  7.0230824672531886  8.1660385413267811   T   T   T
 -0.1847678757117481  4.6844036372894431  6.0007470913179652   T   T   T
  4.6068155032680558  7.4321950451348497  1.3160654148748374   F   F   F
  5.8265849777344361  8.1374409372997452  3.3003459413423974   F   F   F
  0.0791395446683851  2.0685367126884495  8.2680088434698913   T   T   T
 10.4334004810024528  7.4321950451348497  1.3160654148748374   F   F   F
  1.6843488288777775  7.6997289293801767  6.0450960022903706   T   T   T
  7.0460173546356968  2.8434944062047300  6.1060158119655865   T   T   T
  8.6478648598902623  8.3168747139773895  7.2334738724174672   T   T   T
  2.8465633400193986  8.3882629760786305  7.1074424975679502   T   T   T
  5.8547165666438445  3.3084449566316150  7.2558173497351959   T   T   T
 -0.0549516707916941  3.3695678651803567  7.1271989270103342   T   T   T
  0.0000000000000379  6.7279608107023954  2.3016856341631255   F   F   F
  8.7398774666016177  1.6819902026756042  2.3016856341631255   F   F   F
  5.8265849777344370  6.7279608107023954  2.3016856341631255   F   F   F
  2.9132924888672185  1.6819902026756042  2.3016856341631255   F   F   F
  5.7307283285742407  2.3182198308794226 11.0481291116139939   T   T   T
