F  H  I  N  Si
 1.0000000000000000
    11.6531699554687993    0.0000000000000000    0.0000000000000000
     0.0000000000000000   10.0919412160536002    0.0000000000000000
     0.0000000000000000    0.0000000000000000   30.0000000000000000
 F   H   I   N   Si 
  98  79   7  16   8
Selective dynamics
Cartesian
  6.5967770000000003  2.2526720000000000  7.3248179999999996   T   T   T
  1.9921610000000001  2.9547490000000001  5.3404550000000004   T   T   T
  7.8187460000000000  2.9547490000000001  5.3404550000000004   T   T   T
  2.4654680000000000  9.4116809999999997  7.3248189999999997   T   T   T
  8.2920529999999992  9.4116820000000008  7.3248189999999997   T   T   T
  5.3787609999999999  4.3657110000000001  7.3248179999999996   T   T   T
 11.2053449999999994  4.3657110000000001  7.3248179999999996   T   T   T
  2.4638130000000000  1.2740720000000001  2.7239399999999998   F   F   F
  8.2903979999999997  1.2740720000000001  2.7239399999999998   F   F   F
 10.7320379999999993  8.0007190000000001  5.3404550000000004   T   T   T
  5.3771050000000002  6.3200430000000001  2.7239399999999998   F   F   F
  3.6844579999999998  0.5703440000000000  0.7396590000000000   F   F   F
  9.5110430000000008  0.5703440000000000  0.7396590000000000   F   F   F
  0.7711660000000000  5.6163140000000000  0.7396590000000000   F   F   F
  6.5977509999999997  5.6163140000000000  0.7396590000000000   F   F   F
  2.1082150000000000  3.2172399999999999 12.3377269999999992   T   T   T
  2.0742460000000000  5.8004949999999997 11.6048620000000007   T   T   T
 -0.0029680000000000  5.3107620000000004  9.9748940000000008   T   T   T
  0.0310010000000000  2.7275060000000000 10.7077589999999994   T   T   T
 11.2036899999999999  6.3200430000000001  2.7239399999999998   F   F   F
  0.0318880000000000  4.5916860000000002 12.3586720000000003   T   T   T
  4.9054539999999998  8.0007190000000001  5.3404550000000004   T   T   T
 10.7316889999999994  1.2740720000000001  2.7239399999999998   F   F   F
  4.9042279999999998  2.6830460000000000  0.7396590000000000   F   F   F
  6.5977509999999997  8.4342629999999996  2.7239399999999998   F   F   F
  0.7711660000000000  8.4342629999999996  2.7239399999999998   F   F   F
  9.5110430000000008  3.3882919999999999  2.7239399999999998   F   F   F
  3.6844579999999998  3.3882919999999999  2.7239399999999998   F   F   F
  2.4624999999999999  8.0023859999999996  5.3404550000000004   T   T   T
  8.2890850000000000  8.0023859999999996  5.3404550000000004   T   T   T
  5.3757929999999998  2.9564159999999999  5.3404550000000004   T   T   T
  4.9051039999999997  1.2740720000000001  2.7239399999999998   F   F   F
 11.2023770000000003  2.9564159999999999  5.3404550000000004   T   T   T
  9.5100689999999997  7.2986420000000001  7.3248179999999996   T   T   T
  0.7701920000000000  2.2526720000000000  7.3248179999999996   T   T   T
 11.2045659999999998  7.7290169999999998  0.7396590000000000   F   F   F
  5.3779810000000001  7.7290169999999998  0.7396590000000000   F   F   F
  8.2912739999999996  2.6830460000000000  0.7396590000000000   F   F   F
  2.4646889999999999  2.6830460000000000  0.7396590000000000   F   F   F
  7.8183959999999999  6.3200430000000001  2.7239399999999998   F   F   F
  1.9918110000000000  6.3200430000000001  2.7239399999999998   F   F   F
  3.6834850000000001  7.2986420000000001  7.3248179999999996   T   T   T
  3.7323140000000001 -0.0028580000000000 10.0061920000000004   T   T   T
  5.7504929999999996  1.1785220000000001 11.3263239999999996   T   T   T
  4.3193809999999999  3.4452310000000002 11.4856999999999996   T   T   T
  7.9513629999999997  2.2498300000000002 10.1072159999999993   T   T   T
  5.7112499999999997  3.6272769999999999  9.5631679999999992   T   T   T
  6.1331080000000000  5.1663800000000002 11.7229489999999998   T   T   T
  7.8938290000000002  4.7375769999999999 10.0151230000000009   T   T   T
  5.2329809999999997  3.9493819999999999 16.7054940000000016   T   T   T
  4.0292159999999999  1.6736139999999999 17.9022919999999992   T   T   T
  9.9504190000000001  5.1328259999999997 14.0386889999999998   T   T   T
  6.6818660000000003  5.7205750000000002 16.0505730000000000   T   T   T
  8.3732209999999991  3.7889330000000001 12.2669969999999999   T   T   T
  1.9629730000000001  9.6848430000000008 15.4772079999999992   T   T   T
  9.8380200000000002  0.8590600000000000 14.0359800000000003   T   T   T
  7.5807289999999998  2.1840400000000000 14.1620460000000001   T   T   T
  4.6963410000000003  6.1932859999999996 14.8269310000000001   T   T   T
 11.6808130000000006  7.1283490000000000 14.2167189999999994   T   T   T
  5.2431679999999998  8.7652760000000001 11.2820689999999999   T   T   T
  7.9607500000000000  7.3564540000000003 17.7868540000000017   T   T   T
 11.2466050000000006  8.2832279999999994 11.0103380000000008   T   T   T
  2.1276969999999999 10.0904150000000001 17.8195090000000000   T   T   T
  8.1872830000000008  9.6056600000000003 16.7856389999999998   T   T   T
  9.4735960000000006  3.9478599999999999 17.9010299999999987   T   T   T
  8.0372579999999996  3.7723070000000001 15.8745069999999995   T   T   T
  9.6834129999999998  5.8494440000000001 16.3070929999999983   T   T   T
  2.3012020000000000  2.2638520000000000 10.1655669999999994   T   T   T
  3.3994770000000001  1.2273179999999999 12.1454830000000005   T   T   T
  3.5602849999999999  7.9767749999999999 15.9192289999999996   T   T   T
  6.2148659999999998  8.0387889999999995 16.3202360000000013   T   T   T
  6.4644349999999999  9.8818269999999995 14.3831299999999995   T   T   T
  3.8098529999999999  9.8198120000000007 13.9821220000000004   T   T   T
  4.8204330000000004 10.1003150000000002 16.2406010000000016   T   T   T
  9.9551099999999995  6.9443510000000002 12.4952710000000007   T   T   T
  7.6770990000000001  6.8570719999999996 11.0759399999999992   T   T   T
  6.3267449999999998  7.8299740000000000 13.1834170000000004   T   T   T
  8.6047560000000001  7.9172520000000004 14.6027489999999993   T   T   T
  8.4082969999999992  8.8876989999999996 12.3179470000000002   T   T   T
  4.1320540000000001  3.8928520000000000 14.5964589999999994   T   T   T
  1.6259580000000000  4.7393660000000004 14.1334789999999995   T   T   T
  0.6622410000000000  2.4807910000000000 15.2204660000000001   T   T   T
  3.1683370000000002  1.6342770000000000 15.6834460000000000   T   T   T
  2.3691080000000002  3.8949940000000001 16.3550649999999997   T   T   T
 10.0541049999999998  2.0703809999999998 16.3717310000000005   T   T   T
 11.7002600000000001  4.1475169999999997 16.8043170000000011   T   T   T
 10.7308129999999995  2.6830460000000000  0.7396590000000000   F   F   F
  1.9909349999999999  7.7290169999999998  0.7396590000000000   F   F   F
 10.4093409999999995  0.1455730000000000 17.8999999999999986   T   T   T
  4.9044220000000003  9.4099950000000003  7.3248179999999996   T   T   T
  6.5987130000000001  5.0712419999999998  5.3404550000000004   T   T   T
  0.7721290000000000  5.0712419999999998  5.3404550000000004   T   T   T
  9.5120050000000003 10.1172120000000003  5.3404550000000004   T   T   T
  7.8175200000000000  7.7290169999999998  0.7396590000000000   F   F   F
  7.8177149999999997  4.3640239999999997  7.3248179999999996   T   T   T
 10.7310070000000000  9.4099950000000003  7.3248179999999996   T   T   T
  3.6854209999999998 10.1172120000000003  5.3404550000000004   T   T   T
  1.9911300000000001  4.3640239999999997  7.3248179999999996   T   T   T
  5.7568149999999996  9.9032490000000006 -0.0764060000000000   F   F   F
  4.6573520000000004  4.6984029999999999 16.7735500000000002   T   T   T
  6.5977509999999997  7.0247830000000002  6.5138769999999999   T   T   T
  2.8314140000000001  2.4720659999999999  7.8452599999999997   T   T   T
  7.4393029999999998  0.7827480000000000  4.6318960000000002   T   T   T
  4.5260109999999996  5.8287180000000003  4.6318960000000002   T   T   T
 10.3525960000000001  5.8287190000000004  4.6318960000000002   T   T   T
  3.6838090000000001  0.9934269999999999  7.8452609999999998   T   T   T
  9.5103939999999998  0.9934280000000000  7.8452609999999998   T   T   T
  0.7705170000000000  6.0393980000000003  7.8452599999999997   T   T   T
  6.5971019999999996  6.0393980000000003  7.8452599999999997   T   T   T
  1.6121010000000000  9.9032490000000006 -0.0764060000000000   F   F   F
  0.7711660000000000  7.0247830000000002  6.5138769999999999   T   T   T
 10.3519780000000008  4.8572780000000000 -0.0764060000000000   F   F   F
  3.6844579999999998  8.7067730000000001  1.8570240000000000   F   F   F
  9.5110430000000008  8.7067730000000001  1.8570240000000000   F   F   F
  0.7711660000000000  3.6608019999999999  1.8570240000000000   F   F   F
  6.5977509999999997  3.6608019999999999  1.8570240000000000   F   F   F
  8.6694420000000001  5.8286350000000002  4.6318960000000002   T   T   T
  9.5110430000000008  9.6740829999999995  3.2274449999999999   F   F   F
  0.7711660000000000  4.6281119999999998  3.2274449999999999   F   F   F
  6.5977509999999997  4.6281119999999998  3.2274449999999999   F   F   F
  7.4386859999999997  9.9032490000000006 -0.0764060000000000   F   F   F
  4.5253930000000002  4.8572780000000000 -0.0764060000000000   F   F   F
  9.5110430000000008  1.9788120000000000  6.5138769999999999   T   T   T
  9.0108660000000000  5.0950340000000001 14.1519359999999992   T   T   T
  8.6733279999999997  8.2231179999999995  3.2274449999999999   F   F   F
  1.5051720000000000  9.3797329999999999 17.8858969999999999   T   T   T
  5.7600360000000004  3.1771470000000002  3.2274449999999999   F   F   F
 11.6998979999999992  7.4516439999999999 11.0133139999999994   T   T   T
 11.5866209999999992  3.1771470000000002  3.2274449999999999   F   F   F
  8.0085680000000004  6.4173109999999998 17.8997160000000015   T   T   T
  4.5381510000000000  2.4709420000000000  7.8452599999999997   T   T   T
  4.7703410000000002  7.9474640000000001 11.2140070000000005   T   T   T
 10.3647360000000006  2.4709430000000001  7.8452609999999998   T   T   T
 11.1525250000000007  7.9085809999999999 14.3124559999999992   T   T   T
  1.6248579999999999  7.5169129999999997  7.8452599999999997   T   T   T
  4.3281450000000001  6.5833640000000004 14.0463640000000005   T   T   T
  7.4514430000000003  7.5169129999999997  7.8452599999999997   T   T   T
  7.7447999999999997  1.7559860000000000 13.3332730000000002   T   T   T
  3.6844579999999998  9.6740829999999995  3.2274449999999999   F   F   F
 10.1535340000000005  0.0000090000000000 14.2798979999999993   T   T   T
  8.6579999999999995  2.4720659999999999  7.8452599999999997   T   T   T
  8.7466030000000003 10.0999970000000001 16.2027099999999997   T   T   T
  5.7447070000000000  7.5180369999999996  7.8452599999999997   T   T   T
  1.0938360000000000  9.3243519999999993 15.3692209999999996   T   T   T
 11.5712919999999997  7.5180369999999996  7.8452609999999998   T   T   T
 11.5833999999999993  9.9032490000000006 -0.0764060000000000   F   F   F
  3.6844579999999998  1.9788120000000000  6.5138769999999999   T   T   T
  3.5530219999999999  2.4916540000000000 17.8696570000000001   T   T   T
  7.4227900000000000  6.1147400000000003 15.6116200000000003   T   T   T
  8.6701080000000008  4.8572780000000000 -0.0764060000000000   F   F   F
  6.5977509999999997  1.2678499999999999 -0.0764060000000000   F   F   F
 11.0013280000000009  0.0000000000000000 17.1751739999999984   T   T   T
  7.4354649999999998  3.1771470000000002  3.2274449999999999   F   F   F
  1.6088800000000001  3.1771470000000002  3.2274449999999999   F   F   F
 10.3487580000000001  8.2231179999999995  3.2274449999999999   F   F   F
  4.5221730000000004  8.2231179999999995  3.2274449999999999   F   F   F
  6.5977990000000002  9.4169940000000008  4.6318960000000002   T   T   T
  0.7712140000000000  9.4169940000000008  4.6318960000000002   T   T   T
  3.6845059999999998  4.3710230000000001  4.6318960000000002   T   T   T
  3.6844579999999998  6.3138209999999999 -0.0764060000000000   F   F   F
  9.5110430000000008  6.3138209999999999 -0.0764060000000000   F   F   F
  0.7711660000000000  1.2678499999999999 -0.0764060000000000   F   F   F
  2.8435229999999998  4.8572780000000000 -0.0764060000000000   F   F   F
  5.7561499999999999  0.7826650000000001  4.6318960000000002   T   T   T
 11.5827349999999996  0.7826650000000001  4.6318960000000002   T   T   T
  2.8428580000000001  5.8286350000000002  4.6318960000000002   T   T   T
  1.6127180000000001  0.7827480000000000  4.6318960000000002   T   T   T
  0.7711660000000000  0.2968220000000000  1.2928059999999999   F   F   F
  6.5977509999999997  0.2968220000000000  1.2928059999999999   F   F   F
  3.6844579999999998  5.3427920000000002  1.2928059999999999   F   F   F
  9.5110430000000008  5.3427920000000002  1.2928059999999999   F   F   F
  0.7711660000000000  0.2968220000000000  5.9992489999999998   T   T   T
  6.5977509999999997  0.2968220000000000  5.9992489999999998   T   T   T
  2.8467430000000000  8.2231179999999995  3.2274449999999999   F   F   F
  3.6844579999999998  5.3427920000000002  5.9992489999999998   T   T   T
  9.5110910000000004  4.3710240000000002  4.6318960000000002   T   T   T
  9.5110430000000008  5.3427920000000002  5.9992489999999998   T   T   T
  5.0405170000000004  8.7575020000000006 14.9913509999999999   T   T   T
  1.2023750000000000  4.2159259999999996 10.9799129999999998   T   T   T
  8.1017019999999995  7.1670189999999998 12.9158380000000008   T   T   T
  4.1177419999999998  1.7936420000000000 10.5406200000000005   T   T   T
  2.4012609999999999  3.0829260000000001 14.6962329999999994   T   T   T
  9.9267330000000005  3.9616799999999999 16.1103079999999999   T   T   T
  6.9172989999999999  3.5570719999999998 11.0471149999999998   T   T   T
  9.5110430000000008  8.7067730000000001  2.8833500000000001   F   F   F
  6.5977509999999997  0.2968220000000000  4.9710020000000004   T   T   T
  3.6844579999999998  5.3427930000000003  4.9710020000000004   T   T   T
  9.5110430000000008  5.3427920000000002  4.9710020000000004   T   T   T
  6.5977509999999997  0.2968220000000000  0.2661390000000000   F   F   F
  3.6844579999999998  5.3427920000000002  0.2661390000000000   F   F   F
  9.5110430000000008  5.3427920000000002  0.2661390000000000   F   F   F
  3.6844579999999998  8.7067730000000001  2.8833500000000001   F   F   F
  0.7711660000000000  0.2968220000000000  0.2661390000000000   F   F   F
  0.7711660000000000  7.0247820000000001  7.5444719999999998   T   T   T
  9.5110419999999998  1.9788120000000000  7.5444719999999998   T   T   T
  3.6844589999999999  1.9788120000000000  7.5444719999999998   T   T   T
  6.5977509999999997  3.6608019999999999  2.8833500000000001   F   F   F
  0.7711660000000000  3.6608019999999999  2.8833500000000001   F   F   F
  0.7711670000000000  0.2968210000000000  4.9710010000000002   T   T   T
  6.5977509999999997  7.0247820000000001  7.5444719999999998   T   T   T
  3.6844579999999998  1.9788120000000000  1.7252799999999999   F   F   F
  3.6844579999999998  8.7067730000000001  6.3439360000000002   T   T   T
  9.5110430000000008  1.9788120000000000  1.7252799999999999   F   F   F
  9.5110430000000008  8.7067730000000001  6.3439360000000002   T   T   T
  0.7711660000000000  3.6608019999999999  6.3439360000000002   T   T   T
  6.5977499999999996  3.6608019999999999  6.3439360000000002   T   T   T
  6.5977509999999997  7.0247830000000002  1.7252799999999999   F   F   F
  0.7711660000000000  7.0247830000000002  1.7252799999999999   F   F   F
