As F  H  N  Si
 1.0000000000000000
    11.6531699554687993    0.0000000000000000    0.0000000000000000
     0.0000000000000000   10.0919412160536002    0.0000000000000000
     0.0000000000000000    0.0000000000000000   40.1825479999999970
 As  F   H   N   Si 
   8 107  83  16   8
Selective dynamics
Cartesian
 10.2103280000000005  1.7944029999999997 11.2980939999999990   T   T   T
  5.2930640000000002  6.7073200000000002 11.3375400000000006   T   T   T
  1.7239320000000000  6.1816269999999998 12.2195859999999996   T   T   T
  9.7875949999999996  5.6801550000000010 19.0453249999999983   T   T   T
  6.0107480000000004  3.1279480000000004 18.7624639999999978   T   T   T
  1.6434139999999999  8.8059729999999998 18.5042389999999983   T   T   T
  2.8603030000000000  1.9520489999999999 11.2114690000000028   T   T   T
  7.5479399999999988  1.4821750000000000 14.1731619999999996   T   T   T
  3.8035570000000001  0.6994320000000001 10.5007859999999997   T   T   T
  3.6844579999999993  0.5703440000000000  0.8160649999999999   F   F   F
  9.5110430000000008  0.5703440000000000  0.8160649999999999   F   F   F
  0.7711660000000000  5.6163140000000000  0.8160649999999999   F   F   F
  6.5977509999999988  5.6163140000000000  0.8160649999999999   F   F   F
  9.2574470000000009  1.3013399999999999 14.2666060000000012   T   T   T
  6.6797149999999998  0.7899460000000000 12.8575429999999997   T   T   T
  8.5040530000000008  4.7091630000000002 19.6565159999999999   T   T   T
 10.1043679999999991  7.2238739999999995 19.7384579999999978   T   T   T
  1.7282799999999998  0.7643760000000001 11.8023360000000004   T   T   T
  8.6893080000000005  6.4161339999999996 17.9081060000000001   T   T   T
 10.8858730000000001  4.9441689999999996 20.1825479999999970   T   T   T
 11.2036899999999999  6.3200430000000001  2.8003459999999998   F   F   F
  6.7066359999999996  2.3552629999999999 15.3953680000000013   T   T   T
  1.6019600000000001  2.7010890000000001 10.3062769999999997   T   T   T
  3.1753589999999994  2.4556439999999999 12.8273210000000013   T   T   T
  3.9923169999999999  3.1397270000000002 10.6205969999999983   T   T   T
 10.7543330000000008  5.1074020000000004 17.7410159999999983   T   T   T
 10.7316889999999994  1.2740720000000001  2.8003459999999998   F   F   F
  8.2903979999999997  1.2740720000000001  2.8003459999999998   F   F   F
 11.2023770000000003  2.9564159999999999  5.4168610000000008   T   T   T
  3.6834849999999997  7.2986420000000001  7.4012240000000000   T   T   T
  9.5100689999999997  7.2986420000000001  7.4012240000000000   T   T   T
  0.7701920000000000  2.2526720000000000  7.4012240000000000   T   T   T
  6.5967769999999994  2.2526720000000000  7.4012240000000000   T   T   T
 11.2045659999999998  7.7290169999999998  0.8160649999999999   F   F   F
  5.3779810000000001  7.7290169999999998  0.8160649999999999   F   F   F
  8.2912739999999978  2.6830460000000005  0.8160649999999999   F   F   F
  2.4646889999999999  2.6830460000000005  0.8160649999999999   F   F   F
  7.8183959999999999  6.3200430000000001  2.8003459999999998   F   F   F
  1.9918110000000000  6.3200430000000001  2.8003459999999998   F   F   F
  4.9051039999999997  1.2740720000000001  2.8003459999999998   F   F   F
  4.9054539999999998  8.0007190000000001  5.4168610000000008   T   T   T
 10.7320379999999993  8.0007190000000001  5.4168610000000008   T   T   T
  1.9921610000000001  2.9547490000000001  5.4168610000000008   T   T   T
  7.8187459999999991  2.9547490000000001  5.4168610000000008   T   T   T
  2.4654680000000000  9.4116809999999997  7.4012250000000002   T   T   T
  8.2920529999999992  9.4116820000000008  7.4012250000000002   T   T   T
  5.3787609999999999  4.3657110000000001  7.4012240000000000   T   T   T
 11.2053449999999994  4.3657110000000001  7.4012240000000000   T   T   T
  2.4638130000000000  1.2740720000000001  2.8003459999999998   F   F   F
  5.3771050000000002  6.3200430000000001  2.8003459999999998   F   F   F
  7.3423460000000000  0.0092370000000000 15.0838490000000007   T   T   T
  5.2294409999999996  2.0890559999999998 17.6336919999999999   T   T   T
  5.3757929999999998  2.9564159999999999  5.4168610000000008   T   T   T
  5.5781809999999998  8.1685370000000006 10.4293990000000019   T   T   T
 10.8628250000000008  7.9269620000000005 17.2940240000000003   T   T   T
  0.0417600000000000  4.1288850000000004 15.7125809999999984   T   T   T
  2.1450650000000002  3.5211880000000004 20.1771689999999992   T   T   T
  2.7896249999999996  1.7320230000000003 18.4743229999999983   T   T   T
 10.0385369999999998  1.0481000000000000 17.1537819999999996   T   T   T
  4.5477439999999998  8.6078209999999995 16.7745129999999989   T   T   T
  3.2901760000000002  4.5305569999999999 18.1072239999999987   T   T   T
  0.8146470000000000  8.1019530000000000 14.6811140000000009   T   T   T
 11.1137519999999999  2.3062849999999999 19.1634739999999972   T   T   T
  4.1166159999999996  1.2958060000000000 14.9616930000000021   T   T   T
  3.3740299999999994  6.1730200000000002 20.1623920000000005   T   T   T
  6.8271350000000002  4.7435349999999996 15.7144849999999998   T   T   T
 10.0490709999999996  3.7051849999999997 14.7559090000000008   T   T   T
  7.3617579999999991  0.6010250000000000 17.4340569999999992   T   T   T
  8.9397350000000007  0.7741180000000000 20.1766729999999939   T   T   T
  2.6092900000000001  4.1294219999999999 15.2638440000000006   T   T   T
  1.1536430000000000  1.1239500000000000 15.3129039999999996   T   T   T
  5.7109540000000001  6.8609780000000002 14.1756550000000008   T   T   T
  5.0079589999999996  5.2461029999999997 12.2456849999999999   T   T   T
  7.7535279999999993  2.9551189999999998 13.2624840000000006   T   T   T
  4.8787760000000002  5.8843310000000004  9.8832699999999996   T   T   T
  6.9266629999999996  6.7260579999999992 11.8805560000000003   T   T   T
  6.9759649999999995  2.4600789999999999 20.0218910000000001   T   T   T
  5.8268159999999991  4.8346809999999998 18.6317810000000001   T   T   T
  4.6096209999999997  3.0562580000000001 19.7982589999999981   T   T   T
  7.4118689999999994  3.1996299999999995 17.7266619999999975   T   T   T
  1.2617680000000000  7.1276770000000003 18.5433789999999981   T   T   T
  3.2286120000000000  9.3380290000000006 18.9140079999999990   T   T   T
  0.4398510000000000  9.9521689999999996 18.0553319999999999   T   T   T
  1.1620280000000001  8.9543710000000001 20.1737939999999973   T   T   T
  2.1247959999999999  8.6575640000000007 16.8346850000000003   T   T   T
  0.0060620000000000  6.1089969999999996 12.1329260000000012   T   T   T
  2.6592669999999998  6.1865779999999990 10.7742600000000017   T   T   T
  2.5064210000000000  6.2493030000000003 13.7515710000000002   T   T   T
  1.7955369999999999  4.4396709999999997 12.2599610000000006   T   T   T
  1.6523150000000000  7.9235810000000013 12.1792110000000005   T   T   T
  8.4947110000000006  1.8558110000000001 11.1686720000000008   T   T   T
 10.9899000000000004  2.4077419999999998 12.7051930000000013   T   T   T
 11.1463280000000005  1.1196560000000000 10.0204129999999996   T   T   T
 10.3229590000000009  3.3659699999999999 10.5506600000000006   T   T   T
 10.0976849999999985  0.2228360000000000 12.0455269999999999   T   T   T
  4.0737959999999998  7.5115730000000003 12.2488080000000004   T   T   T
  8.2890850000000000  8.0023859999999996  5.4168610000000008   T   T   T
  6.4764339999999994  6.9093550000000006 17.1834169999999986   T   T   T
  3.6844579999999993  3.3882919999999999  2.8003459999999998   F   F   F
  2.4624999999999999  8.0023859999999996  5.4168610000000008   T   T   T
  6.5987129999999992  5.0712419999999998  5.4168610000000008   T   T   T
  0.7721289999999998  5.0712419999999998  5.4168610000000008   T   T   T
  9.5120050000000003 10.1172120000000003  5.4168610000000008   T   T   T
  7.8177149999999989  4.3640239999999997  7.4012240000000000   T   T   T
  1.9911300000000001  4.3640239999999997  7.4012240000000000   T   T   T
 10.7310070000000000  9.4099950000000003  7.4012240000000000   T   T   T
  3.6854209999999994 10.1172120000000003  5.4168610000000008   T   T   T
  7.8175200000000000  7.7290169999999998  0.8160649999999999   F   F   F
  1.9909349999999999  7.7290169999999998  0.8160649999999999   F   F   F
 10.7308129999999977  2.6830460000000005  0.8160649999999999   F   F   F
  4.9042279999999998  2.6830460000000005  0.8160649999999999   F   F   F
  6.5977509999999988  8.4342629999999996  2.8003459999999998   F   F   F
  0.7711660000000000  8.4342629999999996  2.8003459999999998   F   F   F
  4.9044220000000003  9.4099950000000003  7.4012240000000000   T   T   T
  9.5110430000000008  3.3882919999999999  2.8003459999999998   F   F   F
 10.3525960000000001  5.8287190000000004  4.7083020000000007   T   T   T
 11.1709650000000007  7.2251560000000001 16.7376690000000004   T   T   T
  4.5260109999999996  5.8287180000000003  4.7083020000000007   T   T   T
  0.2095460000000000  3.3593350000000002 16.2385599999999997   T   T   T
  2.8314140000000001  2.4720659999999999  7.9216660000000001   T   T   T
  1.3976960000000000  3.9970870000000005 19.8425440000000002   T   T   T
  1.9934620000000001  2.0694020000000002 18.0879109999999983   T   T   T
  3.6838090000000001  0.9934269999999999  7.9216670000000002   T   T   T
  6.5977509999999988  7.0247830000000011  6.5902829999999994   T   T   T
  7.4393029999999998  0.7827480000000000  4.7083020000000007   T   T   T
  9.5103939999999998  0.9934280000000000  7.9216670000000002   T   T   T
  3.6844579999999993  8.7067730000000001  1.9334300000000000   F   F   F
  6.5971019999999987  6.0393980000000003  7.9216660000000001   T   T   T
  1.6121010000000000  9.9032490000000006  0.0000000000000000   F   F   F
  7.4386859999999997  9.9032490000000006  0.0000000000000000   F   F   F
  4.5253930000000002  4.8572780000000000  0.0000000000000000   F   F   F
 10.3519780000000008  4.8572780000000000  0.0000000000000000   F   F   F
 10.1349649999999993  0.1153180000000000 17.0209939999999982   T   T   T
  9.5110430000000008  8.7067730000000001  1.9334300000000000   F   F   F
  0.7711660000000000  3.6608019999999999  1.9334300000000000   F   F   F
  6.5977509999999988  3.6608019999999999  1.9334300000000000   F   F   F
  8.6694420000000001  5.8286350000000002  4.7083020000000007   T   T   T
  0.7705170000000000  6.0393980000000003  7.9216660000000001   T   T   T
  0.7711660000000000  7.0247830000000011  6.5902829999999994   T   T   T
  5.7447070000000000  7.5180369999999996  7.9216660000000001   T   T   T
  9.5110430000000008  1.9788120000000000  6.5902829999999994   T   T   T
  8.6733279999999997  8.2231179999999995  3.3038510000000003   F   F   F
  5.9174629999999988  7.7767269999999993 14.0500650000000000   T   T   T
  5.7600360000000004  3.1771470000000002  3.3038510000000003   F   F   F
  0.2270350000000000  0.9621940000000000 15.2022469999999998   T   T   T
 11.5866209999999992  3.1771470000000002  3.3038510000000003   F   F   F
  2.7836159999999999  3.3781680000000001 15.8136089999999996   T   T   T
  4.5381510000000000  2.4709420000000000  7.9216660000000001   T   T   T
  9.3957499999999996  0.0005820000000000 19.8754969999999993   T   T   T
 10.3647360000000006  2.4709430000000001  7.9216670000000002   T   T   T
  7.3947839999999987  0.0464970000000000 18.2011439999999993   T   T   T
  1.6248579999999999  7.5169130000000006  7.9216660000000001   T   T   T
  4.3020250000000004  8.0262650000000004 16.0685180000000010   T   T   T
  9.3064280000000004  4.1615960000000003 15.1262910000000002   T   T   T
  5.8827210000000001  4.7163009999999996 15.6485059999999994   T   T   T
  3.6844579999999993  9.6740829999999995  3.3038510000000003   F   F   F
  3.7826430000000002  6.9050919999999998 19.7218020000000003   T   T   T
  8.6579999999999995  2.4720659999999999  7.9216660000000001   T   T   T
  3.7026589999999997  0.5522230000000000 15.3773110000000024   T   T   T
  9.5110430000000008  9.6740829999999995  3.3038510000000003   F   F   F
 10.8031950000000005  2.5712259999999998 20.0180939999999978   T   T   T
 11.5712919999999997  7.5180369999999996  7.9216670000000002   T   T   T
  0.0006640000000000  8.5735639999999993 14.5714420000000011   T   T   T
  3.6844579999999993  1.9788120000000000  6.5902829999999994   T   T   T
  3.4971459999999999  5.2352900000000000 17.5092869999999969   T   T   T
  7.4514429999999994  7.5169130000000006  7.9216660000000001   T   T   T
  0.7711660000000000  4.6281119999999998  3.3038510000000003   F   F   F
  9.5110430000000008  5.3427920000000011  1.3692119999999999   F   F   F
  5.7568149999999996  9.9032490000000006  0.0000000000000000   F   F   F
  6.9335519999999997  7.2347299999999999 16.4204039999999978   T   T   T
  6.5977509999999988  4.6281119999999998  3.3038510000000003   F   F   F
  1.6088800000000001  3.1771470000000002  3.3038510000000003   F   F   F
 10.3487580000000001  8.2231179999999995  3.3038510000000003   F   F   F
  4.5221730000000004  8.2231179999999995  3.3038510000000003   F   F   F
  6.5977989999999993  9.4169940000000008  4.7083020000000007   T   T   T
  0.7712139999999998  9.4169940000000008  4.7083020000000007   T   T   T
  3.6845059999999998  4.3710230000000001  4.7083020000000007   T   T   T
  3.6844579999999993  6.3138210000000008  0.0000000000000000   F   F   F
  9.5110430000000008  6.3138210000000008  0.0000000000000000   F   F   F
  0.7711660000000000  1.2678499999999999  0.0000000000000000   F   F   F
  6.5977509999999988  1.2678499999999999  0.0000000000000000   F   F   F
  5.7561499999999999  0.7826650000000001  4.7083020000000007   T   T   T
  7.4354649999999989  3.1771470000000002  3.3038510000000003   F   F   F
  2.8428580000000001  5.8286350000000002  4.7083020000000007   T   T   T
 11.5833999999999993  9.9032490000000006  0.0000000000000000   F   F   F
 11.5827349999999996  0.7826650000000001  4.7083020000000007   T   T   T
  2.8435229999999998  4.8572780000000000  0.0000000000000000   F   F   F
  8.6701080000000008  4.8572780000000000  0.0000000000000000   F   F   F
  0.7711660000000000  0.2968220000000000  1.3692119999999999   F   F   F
  6.5977509999999988  0.2968220000000000  1.3692119999999999   F   F   F
  1.6127180000000001  0.7827480000000000  4.7083020000000007   T   T   T
  0.7711660000000000  0.2968220000000000  6.0756550000000002   T   T   T
  6.5977509999999988  0.2968220000000000  6.0756550000000002   T   T   T
  3.6844579999999993  5.3427920000000011  6.0756550000000002   T   T   T
  9.5110430000000008  5.3427920000000011  6.0756550000000002   T   T   T
  2.8467430000000000  8.2231179999999995  3.3038510000000003   F   F   F
  3.6844579999999993  5.3427920000000011  1.3692119999999999   F   F   F
  9.5110910000000004  4.3710240000000002  4.7083020000000007   T   T   T
  3.6844579999999993  5.3427930000000012  5.0474080000000008   T   T   T
  6.5977509999999988  0.2968220000000000  5.0474080000000008   T   T   T
  0.7711670000000000  0.2968210000000000  5.0474070000000006   T   T   T
  9.5110419999999998  1.9788120000000000  7.6208779999999994   T   T   T
  0.7711660000000000  7.0247820000000001  7.6208779999999994   T   T   T
  3.6844589999999995  1.9788120000000000  7.6208779999999994   T   T   T
  6.5977509999999988  3.6608019999999999  2.9597560000000001   F   F   F
  0.7711660000000000  3.6608019999999999  2.9597560000000001   F   F   F
  6.5977509999999988  7.0247820000000001  7.6208779999999994   T   T   T
  9.5110430000000008  5.3427920000000011  5.0474080000000008   T   T   T
  3.6844579999999993  5.3427920000000011  0.3425450000000000   F   F   F
  6.5977509999999988  0.2968220000000000  0.3425450000000000   F   F   F
  9.5110430000000008  5.3427920000000011  0.3425450000000000   F   F   F
  3.6844579999999993  8.7067730000000001  2.9597560000000001   F   F   F
  0.7711660000000000  0.2968220000000000  0.3425450000000000   F   F   F
  9.5110430000000008  8.7067730000000001  2.9597560000000001   F   F   F
  6.5977499999999996  3.6608019999999999  6.4203420000000007   T   T   T
  0.7711660000000000  3.6608019999999999  6.4203420000000007   T   T   T
  9.5110430000000008  8.7067730000000001  6.4203420000000007   T   T   T
  6.5977509999999988  7.0247830000000011  1.8016860000000001   F   F   F
  0.7711660000000000  7.0247830000000011  1.8016860000000001   F   F   F
  9.5110430000000008  1.9788120000000000  1.8016860000000001   F   F   F
  3.6844579999999993  1.9788120000000000  1.8016860000000001   F   F   F
  3.6844579999999993  8.7067730000000001  6.4203420000000007   T   T   T
