F  H  I  N  Si
 1.0000000000000000
    11.6531699554687993    0.0000000000000000    0.0000000000000000
     0.0000000000000000   10.0919412160536002    0.0000000000000000
     0.0000000000000000    0.0000000000000000   30.0000000000000000
 F   H   I   N   Si 
  53  64   1  16   8
Selective dynamics
Cartesian
  1.6943022649829742  9.1148596632131671  7.9012246053091308   T   T   T
  9.9598410169661520  9.1131728660806903  7.9012242263108199   T   T   T
  1.2199640734073285  4.0672024444201105  7.9012241968425698   T   T   T
  7.0465490411716374  4.0672024479506712  7.9012242012016767   T   T   T
  2.9142553330518326  9.8203906562064649  5.9168608537749767   T   T   T
  8.7408398231498605  9.8203904514596747  5.9168609467895505   T   T   T
  0.0009632795259079  4.7744203236886387  5.9168611703365288   T   T   T
  5.8275474935402238  4.7744203482567995  5.9168610163546180   T   T   T
  7.5208872636546635  9.1148597130712954  7.9012247293508091   T   T   T
  4.6075948509180824  4.0688891187256768  7.9012242893538733   T   T   T
 10.4341794770548670  4.0688892318487317  7.9012241281602282   T   T   T
  1.6926468931046077  0.9772501393769297  3.3003459413423974   F   F   F
  7.5192318708390076  0.9772501393769297  3.3003459413423974   F   F   F
  4.6059393819718260  6.0232207474037214  3.3003459413423974   F   F   F
 10.4325243597062247  6.0232207474037214  3.3003459413423974   F   F   F
  2.9132924888672185  0.2735217338106973  1.3160654148748374   F   F   F
  8.7398774666016177  0.2735217338106973  1.3160654148748374   F   F   F
  5.9987216907745555  0.9588781589119720 11.6707039182578765   T   T   T
  0.0000000000000379  5.3194923418374893  1.3160654148748374   F   F   F
  5.8265849777344370  5.3194923418374893  1.3160654148748374   F   F   F
  6.5424423678037646  2.9671254338090951 13.0389098136304451   T   T   T
  4.2587162066077955  2.7399927856039445 11.6444714396743425   T   T   T
  5.6610532893573966  2.0533642766043601  9.4596499728367007   T   T   T
  7.9447798174992448  2.2804970000417035 10.8540885349881702   T   T   T
  7.0463544522008181  7.4321950451348506  1.3160654148748374   F   F   F
  1.2197694744664185  7.4321950451348506  1.3160654148748374   F   F   F
  4.1332565328658299  9.1131730369301476  7.9012245203183511   T   T   T
  4.1330619633336001  2.3862244371080585  1.3160654148748374   F   F   F
  1.2209953171189345  2.6579266984664107  5.9168606214479986   T   T   T
  9.9608728320776336  7.7038970062079093  5.9168608272145669   T   T   T
  4.1342878881655176  7.7038971309340436  5.9168607315921751   T   T   T
  4.1339380846298308  0.9772501393769296  3.3003459413423974   F   F   F
  9.9605230623642314  0.9772501393769296  3.3003459413423974   F   F   F
  1.2206455957626490  6.0232207474037214  3.3003459413423974   F   F   F
  7.0472305734970480  6.0232207474037214  3.3003459413423974   F   F   F
  1.6935230144008373  2.3862244371080581  1.3160654148748374   F   F   F
  7.5201079921352374  2.3862244371080581  1.3160654148748374   F   F   F
  9.9596469410679997  2.3862244371080585  1.3160654148748374   F   F   F
 10.4334004810024528  7.4321950451348497  1.3160654148748374   F   F   F
  5.8256111014261327  1.9558497938654520  7.9012244401252856   T   T   T
  4.6068155032680558  7.4321950451348497  1.3160654148748374   F   F   F
  8.7389036578320720  7.0018200451233303  7.9012244752973162   T   T   T
  5.8265849777344361  8.1374409372997452  3.3003459413423974   F   F   F
 -0.0009732204856875  1.9558498309164682  7.9012244680060046   T   T   T
  8.7398774666016177  3.0914703292729544  3.3003459413423974   F   F   F
  2.9132924888672180  3.0914703292729544  3.3003459413423974   F   F   F
  0.0000000000000366  8.1374409372997452  3.3003459413423974   F   F   F
  7.5179191147876443  7.7055645157480370  5.9168606049829204   T   T   T
  4.6046268748341816  2.6595943875677244  5.9168608148673538   T   T   T
 10.4312114700813403  2.6595943919773890  5.9168609875075076   T   T   T
  2.9123188926982575  7.0018198459940919  7.9012244500088782   T   T   T
  1.6913339922525052  7.7055645439707243  5.9168608213343230   T   T   T
  7.0475803286718310  2.6579270100966017  5.9168606988059329   T   T   T
  5.8266329408636341  9.1201722272731836  5.2083020196932024   T   T   T
  6.6642997877180274  2.8803255343030250  3.8038507225754685   F   F   F
  0.8377148099836284  2.8803255343030250  3.8038507225754685   F   F   F
  9.5775922765852108  7.9262961423298357  3.8038507225754685   F   F   F
  3.7510072988508103  7.9262961423298357  3.8038507225754685   F   F   F
  0.8415525135371655  0.4859259209404380  5.2083024588877240   T   T   T
  2.9132924888672185  6.0169990050883788  0.5000000000000000   F   F   F
  6.6675202373858173  9.6064270175228081  0.5000000000000000   F   F   F
  0.8409352596514178  9.6064270175228081  0.5000000000000000   F   F   F
  5.8259360582765956  5.7425764784505020  8.4216661085289992   T   T   T
 -0.0006488149116767  5.7425762270134353  8.4216664356198816   T   T   T
  8.7392284049393609  0.6966058257652514  8.4216666305349079   T   T   T
  2.9126436039775112  0.6966056765126879  8.4216666814387171   T   T   T
  9.5814298931841755  5.5318969740738604  5.2083023472791252   T   T   T
  3.7548449604330729  5.5318965201910499  5.2083024289033393   T   T   T
  6.6681374178885093  0.4859259476633768  5.2083022788423081   T   T   T
  2.0602486641446340  2.1752445975949120  8.4216665050248025   T   T   T
  5.8265849529275746  6.7279608104828910  7.0902827145300673   T   T   T
  0.0000001620276770  6.7279608492583440  7.0902829620716661   T   T   T
  8.7398775327428702  1.6819903952705666  7.0902831023540749   T   T   T
  2.9132926458170356  1.6819903291709069  7.0902827538356448   T   T   T
 10.8001261942254878  7.2212151395951949  8.4216666037639953   T   T   T
  4.9735414408608820  7.2212148782946493  8.4216663631570938   T   T   T
  7.8868341361889795  2.1752445897769235  8.4216662425889659   T   T   T
  2.9132924888672185  9.3772607554743246  3.8038507225754685   F   F   F
  6.6802773267618489  7.2200908336183360  8.4216662421889943   T   T   T
  0.8536927152551053  7.2200911457599934  8.4216665418377410   T   T   T
  9.5935706521161421  2.1741210060168616  8.4216668203107652   T   T   T
  3.7669849520521415  2.1741206569131366  8.4216662746942816   T   T   T
 10.8154551454852452  2.8803255343030250  3.8038507225754685   F   F   F
  4.9888701677508447  2.8803255343030250  3.8038507225754685   F   F   F
  7.9021626566180254  7.9262961423298357  3.8038507225754685   F   F   F
  3.7542277485186357  4.5604564094959974  0.5000000000000000   F   F   F
  9.5808127262530363  4.5604564094959974  0.5000000000000000   F   F   F
  2.9132924888672185  8.4099510133779987  2.4334301740582331   F   F   F
  8.7398774666016177  8.4099510133779987  2.4334301740582331   F   F   F
  8.7398774666016177  6.0169990050883788  0.5000000000000000   F   F   F
  0.0000000000000379  0.9710283970615677  0.5000000000000000   F   F   F
  5.8265849777344370  0.9710283970615677  0.5000000000000000   F   F   F
  4.9849844682517830  0.4858431895731812  5.2083023093017635   T   T   T
 10.8115689744664234  0.4858434578002372  5.2083020975831564   T   T   T
  2.0716921617775825  5.5318134475781218  5.2083021150250630   T   T   T
  2.0755776788836262  7.9262961423298357  3.8038507225754685   F   F   F
  8.7399253226070517  4.0742019402551044  5.2083022337151963   T   T   T
  8.7398772694281970  5.0459704750830259  6.5756554312920175   T   T   T
  2.9132923010169791  5.0459706910831974  6.5756552703092535   T   T   T
  5.8265850794823608 -0.0000000862492278  6.5756550147276478   T   T   T
  0.0000000254469637 -0.0000001127450272  6.5756553358078769   T   T   T
  2.9133405400311889  4.0742015325280505  5.2083022487616129   T   T   T
  8.7398774666016177  5.0459706080267921  1.8692122630551729   F   F   F
  5.8265849777344005  0.0000000000000000  1.8692122630551729   F   F   F
  0.0000000000000009  0.0000000000000000  1.8692122630551729   F   F   F
  7.8989422069502391  4.5604564094960001  0.5000000000000000   F   F   F
  2.0723572292158399  4.5604564094960001  0.5000000000000000   F   F   F
 10.8122346958174198  9.6064270175228099  0.5000000000000000   F   F   F
  4.9856497180830210  9.6064270175228099  0.5000000000000000   F   F   F
  5.8265849777344370  4.3312901474475138  3.8038507225754685   F   F   F
  0.0000000000000379  4.3312901474475138  3.8038507225754685   F   F   F
  8.7398774666016177  9.3772607554743246  3.8038507225754685   F   F   F
  7.8982764482709955  5.5318136411368659  5.2083018326922632   T   T   T
  5.8265849777344370  3.3639804053511888  2.4334301740582331   F   F   F
  0.0000000000000379  3.3639804053511888  2.4334301740582331   F   F   F
  2.9132924888672185  5.0459706080267921  1.8692122630551729   F   F   F
  0.0000479960411628  9.1201724095238976  5.2083020777098641   T   T   T
  6.1168627668937718  2.7378450787025046 11.1874531709280696   T   T   T
  5.8265849777344370  3.3639804053511888  3.4597557168440631   F   F   F
  0.0000000000000009  0.0000000000000000  0.8425449303043501   F   F   F
  2.9132924888672185  8.4099510133779987  3.4597557168440631   F   F   F
  8.7398774666016177  5.0459706080267921  0.8425449303043501   F   F   F
  2.9132924888672185  5.0459706080267921  0.8425449303043501   F   F   F
  0.0000000000000379  3.3639804053511888  3.4597557168440631   F   F   F
  5.8265849777344005  0.0000000000000000  0.8425449303043501   F   F   F
  8.7398774666016177  8.4099510133779987  3.4597557168440631   F   F   F
  8.7398772032723286  5.0459699971640788  5.5474076088187738   T   T   T
  5.8265851802936366  0.0000004171864252  5.5474076655965199   T   T   T
  0.0000009445549226 -0.0000003366995572  5.5474074882977620   T   T   T
  5.8265852155321811  6.7279605003343708  8.1208782477315893   T   T   T
  0.0000000999011021  6.7279604904640715  8.1208777185143664   T   T   T
  8.7398761494698256  1.6819899152532765  8.1208778942279700   T   T   T
  2.9132928596650558  1.6819903776035172  8.1208779405408507   T   T   T
  2.9132927689320338  5.0459709458728996  5.5474077299987918   T   T   T
  5.8265847955866708  3.3639803342120240  6.9203423407150630   T   T   T
  8.7398776840396071  8.4099509470817555  6.9203422459342265   T   T   T
  2.9132923840722675  8.4099509352379691  6.9203423128524229   T   T   T
  5.8265849777344370  6.7279608107023954  2.3016856341631255   F   F   F
  0.0000000000000379  6.7279608107023954  2.3016856341631255   F   F   F
  8.7398774666016177  1.6819902026756042  2.3016856341631255   F   F   F
  2.9132924888672185  1.6819902026756042  2.3016856341631255   F   F   F
  0.0000003207652417  3.3639805527349531  6.9203424096375628   T   T   T
