F  H  O  P  Si
 1.0000000000000000
     9.8224603672816997    0.0000000000000000    0.0000000000000000
    -4.9112301836409040    8.5195690981523047    0.0000000000000000
     0.0000000000000583    0.0360251379324295   26.9999796582416955
 F   H   O   P   Si 
   4  17  48   1  20
Selective dynamics
Cartesian
  2.6143881440315480  3.2565197662412437 14.1524118904980032   T   T   T
  4.0888867123056034  3.8206120884112353 13.6150546725140735   T   T   T
  3.5070002557848690  2.2633434900738574 11.9595335068934592   T   T   T
  3.7382412740449427  1.5851362748134066 14.1827397710303309   T   T   T
  1.6812305059966444  3.2479425410679528 14.0467484654851482   T   T   T
 -1.2111378593769759  6.0456641011991694 10.4626925944745004   T   T   T
  4.3657047968647955  8.2665482021981216 10.5229348518854184   T   T   T
  5.2533920853502183  6.7684119324851029  0.0979647184448421   F   F   F
  1.8672009015131541  3.9599537497414130 10.5513383378521546   T   T   T
 -0.5919420809387381  8.2294203764804266 10.5345633786181967   T   T   T
  2.7977769935297903  6.0131494488380381  0.6892279876741670   F   F   F
  6.2438291832182049  1.8302793031132190 10.3840056475784586   T   T   T
  6.8065079252126148  4.0258092705370201 10.5277932599148194   T   T   T
  0.3421619017093552  6.7684119324850922  0.0979647184448535   F   F   F
  3.7522817003368663  6.0841652028701789 10.4494915474580363   T   T   T
  7.7090071771706628  2.5086273834089630  0.0979647184448247   F   F   F
  2.7977769935297974  2.5086273834089519  0.0979647184448361   F   F   F
 -2.1134531901110734  6.0131494488380266  0.6892279876741780   F   F   F
  1.2428151805792405  1.7839952568438679 10.4831685213675065   T   T   T
  0.3421619017093678  1.7533648997618856  0.6892279876741610   F   F   F
  5.2533920853502396  1.7533648997618965  0.6892279876741497   F   F   F
 -3.5253619272118941  7.1641758606034207  9.0293935918887307   T   T   T
  1.3399007851670426  7.3638012514587210  3.4881581416814367   F   F   F
  3.7955158769874804  3.1040167023825798  3.4881581416814180   F   F   F
  3.5122663904616087  7.7752971720483703 10.5395939769994129   T   T   T
 -3.5713293984738361  7.3638012514587095  3.4881581416814487   F   F   F
 -1.0700042445422799  2.8961305916925948  9.0295087938528482   T   T   T
  1.2082656033032309  0.7963277054873220 10.3675021795159275   T   T   T
  1.3992956260000042  7.1687705328964055  9.0450838970980314   T   T   T
  0.3421619017093551  6.7692232581571501  1.0979643893201256   F   F   F
  1.0054234017276260  3.4912187111313204 10.5636505518929962   T   T   T
  0.2492364133098647  6.8303069858696501  6.6233330895050972   T   T   T
  3.8547872675368375  2.9179489799740810  9.0315425724656624   T   T   T
  2.7085626498585684  2.5658310151392913  6.6140581446889088   T   T   T
  2.7977769935297956  2.5094387090810093  1.0979643893201079   F   F   F
  2.7045508834860654  5.9631648075034880  7.0749487988209818   T   T   T
  0.3421619017093695  1.7541762254339419  1.6892276585494332   F   F   F
  5.2533920853502334  1.7541762254339528  1.6892276585494219   F   F   F
 -1.7173450853016812  7.9476579979769646  5.3158140981478388   T   T   T
  5.1616880857402032  1.7000525261190260  7.0718899845499736   T   T   T
  5.9493060271522626  3.5406899637713427 10.5491048015315290   T   T   T
 -1.1157143066533917  3.1040167023825669  3.4881581416814300   F   F   F
  2.7977769935297916  6.0139607745100934  1.6892276585494392   F   F   F
  0.6152052956547374  4.8163099824586144  8.3061044610528061   T   T   T
 -2.1134531901110751  6.0139607745100871  1.6892276585494508   F   F   F
  7.9937692791770996  0.5402840093967750  8.2670664885030618   T   T   T
  0.7737936967446198  4.8516745489290471  2.9198781769704403   F   F   F
  5.6386261136556435  3.6872558780134712  5.3211896806430037   T   T   T
  0.2566268685934557  1.7082728514847769  7.0702754075362435   T   T   T
  5.6850238803854856  4.8516745489290605  2.9198781769704283   F   F   F
 -1.4529857257595313  7.7589789940064833 10.5683286749775753   T   T   T
  1.3467669797371637  1.1800838200642700  4.7340924848546972   T   T   T
  5.5286020801349345  4.8144645616767265  8.2663925804432896   T   T   T
  3.7221188474391629  5.0925466196190090 10.3716788013801278   T   T   T
  3.2294087885650606  0.5918899998529065  2.9198781769704216   F   F   F
  8.1406389722059380  0.5918899998529171  2.9198781769704114   F   F   F
  6.2496950176557942  1.1833409178736221  4.7278460025763271   T   T   T
 -1.2278963528385982  5.0546498531142285 10.3751532030735802   T   T   T
  7.7090071771706690  2.5094387090810235  1.0979643893200970   F   F   F
  7.6160449811558220  2.5634395956732372  6.6056202312099446   T   T   T
 -1.1060106301501309  5.4410540494219717  4.7358043984631459   T   T   T
  5.2533920853502316  6.7692232581571625  1.0979643893201139   F   F   F
  5.1570748871511114  6.8393381533957793  6.6052104372520501   T   T   T
  3.1794578547323122  7.9479647539010498  5.3191595302124890   T   T   T
 -2.2052453003975168  5.9710000043033222  7.0686388454042106   T   T   T
  3.0754127220618583  0.5623060645471846  8.3122414146144035   T   T   T
  3.7965528433666504  5.4419300623987832  4.7328782251686485   T   T   T
  6.2071949102605570  0.8377164881424052 10.3685945492929665   T   T   T
  0.7374835289802366  3.6868523101532804  5.3162141087482357   T   T   T
  4.5916956390468986  2.4009288754680163 13.1196381704522249   T   T   T
 -1.1932649227008958  6.5414204876616395  5.9206907345270094   T   T   T
  7.2483011110519202 -0.1196476958894761  9.5572048077355909   T   T   T
  4.7336911658703089  4.2753452303803154  4.0931757537380715   T   T   T
  1.2459078572756919  6.2010006663105006  7.7407558965967080   T   T   T
  1.3118824076017215  6.2518063166250721  2.2994260662927575   F   F   F
  3.7037945890340964  1.9429501988714586  7.7355437882783056   T   T   T
  6.1657089104007801  2.2783268763088249  5.9181336703967782   T   T   T
  3.7078398986177747  6.5415427656013527  5.9194998760330924   T   T   T
 -0.1741308283762171  4.2730696888345738  4.0929299210536625   T   T   T
  2.2960566304293746 -0.1176327795338586  9.5735486133679295   T   T   T
 -0.1540732317139819  4.1306538944067430  9.5702660434657307   T   T   T
  1.2628054447304817  2.2804709510331249  5.9185542694100137   T   T   T
  7.1874705345060095  0.0166909406973568  4.0911129392145913   T   T   T
 -1.1437326842187019  1.9920217675489191  2.2994260662927504   F   F   F
 -1.2072898626705746  1.9352115876741713  7.7205420146775365   T   T   T
 -3.5993477760391466  6.2518063166250677  2.2994260662927690   F   F   F
 -3.6678580907685454  6.2081367374668970  7.7198129017065433   T   T   T
  3.7674974994221624  1.9920217675489300  2.2994260662927388   F   F   F
  2.2810767507240106  0.0135623770320447  4.0928289476281243   T   T   T
  4.7689188062404755  4.1602516639721676  9.5498156619669619   T   T   T
