H  O  F  Si P 
 1.0000000000000000
     9.8224603672816997    0.0000000000000000    0.0000000000000000
    -4.9112301836409040    8.5195690981523047    0.0000000000000000
     0.0000000000000583    0.0360251379324295   26.9999796582416955
 H   O   F   Si  P  
  17  48   4  20   1
Selective dynamics
Cartesian
  0.3421619017093678  1.7533648997618856  0.6892279876741610   F   F   F
  5.2533920853502396  1.7533648997618965  0.6892279876741497   F   F   F
  1.3127586289399018  1.7481916695419624 10.4865714630297866   T   T   T
 -2.1134531901110734  6.0131494488380266  0.6892279876741780   F   F   F
  2.7977769935297974  2.5086273834089519  0.0979647184448361   F   F   F
  7.7090071771706628  2.5086273834089630  0.0979647184448247   F   F   F
  3.6995999430377053  6.0303432274801256 10.4401748629760629   T   T   T
  6.7871914022953126  4.0197737816006933 10.5235040936898425   T   T   T
  6.2375359709496916  1.8107783247631608 10.4379228020493056   T   T   T
  2.7977769935297903  6.0131494488380381  0.6892279876741670   F   F   F
  0.3421619017093552  6.7684119324850922  0.0979647184448535   F   F   F
  1.9291085863662301  4.0732158494776103 10.4668816804746783   T   T   T
  5.2533920853502183  6.7684119324851029  0.0979647184448421   F   F   F
  4.3614620515459794  8.2001676185035102 10.5244116138123687   T   T   T
 -1.2130551494587147  6.0640024766066407 10.4717891638743446   T   T   T
  0.9930840257961475  3.5839431830946960 12.2582032810206982   T   T   T
 -0.5767546347280075  8.2359616012939849 10.5387641259892781   T   T   T
  1.3396684220182802  1.1793123978777460  4.7274611545217624   T   T   T
  7.9965030940692738  0.5474609520703815  8.3028999995426727   T   T   T
  3.0796825740679048  0.5154528580918679  8.2821891865864430   T   T   T
  0.7737936967446198  4.8516745489290471  2.9198781769704403   F   F   F
  0.6289910977056974  4.8125335515301355  8.2924395431050524   T   T   T
  5.6495639110022822  3.6809577461915142  5.3195899759828569   T   T   T
  0.2469955667440303  1.6964454950521575  7.0675808874649784   T   T   T
  5.6850238803854856  4.8516745489290605  2.9198781769704283   F   F   F
 -1.4380447290681571  7.7648828869792705 10.5723118148141531   T   T   T
  5.5141717184238770  4.7879269384403971  8.2695329648497680   T   T   T
 -2.1134531901110751  6.0139607745100871  1.6892276585494508   F   F   F
  3.2294087885650606  0.5918899998529065  2.9198781769704216   F   F   F
  8.1406389722059380  0.5918899998529171  2.9198781769704114   F   F   F
  6.2706350379172697  1.1820617949531502  4.7402100560195315   T   T   T
 -1.2345344632986712  5.0743666374315097 10.3589341283908105   T   T   T
  7.7090071771706690  2.5094387090810235  1.0979643893200970   F   F   F
  7.6067033720332988  2.5767013371831573  6.6523017472051205   T   T   T
  2.7977769935297916  6.0139607745100934  1.6892276585494392   F   F   F
 -1.1101961694714599  5.4414830924568482  4.7325722251935129   T   T   T
  5.2533920853502316  6.7692232581571625  1.0979643893201139   F   F   F
  5.1618751870101045  6.8280877920699128  6.6211591797502871   T   T   T
  3.6575146938537322  5.0414456763577729 10.3291131049547680   T   T   T
 -1.1157143066533917  3.1040167023825669  3.4881581416814300   F   F   F
  3.8488360490240621  2.8676020814299426  9.0321596041355612   T   T   T
  5.1592803806417900  1.6840112454490730  7.0639357385686301   T   T   T
  0.7309229753332410  3.6842529810260736  5.3207747168325010   T   T   T
  6.2136444856598549  0.8178435567984076 10.4101161635700965   T   T   T
  3.8034220855114342  5.4320475437364779  4.7430555109958217   T   T   T
 -3.5106070063440549  7.1237584187257159  9.0483185770302192   T   T   T
  1.3399007851670426  7.3638012514587210  3.4881581416814367   F   F   F
  3.7955158769874804  3.1040167023825798  3.4881581416814180   F   F   F
  3.5000307166364513  7.7267812675292920 10.5454265749786078   T   T   T
 -3.5713293984738361  7.3638012514587095  3.4881581416814487   F   F   F
 -1.0179020685103886  2.8879415717667674  9.0626375730164046   T   T   T
  1.2147565186623415  0.7838672394606079 10.3287278672829377   T   T   T
  1.3851057337349868  7.1723338153489689  9.0427257372921588   T   T   T
  0.3421619017093551  6.7692232581571501  1.0979643893201256   F   F   F
  1.0587801577343101  3.6169125861858107 10.5911107641854478   T   T   T
  0.2423243150010535  6.8291266777580422  6.6201528476376614   T   T   T
  3.1953786215595157  7.9414402028259881  5.3156285317905931   T   T   T
  2.6994742396535938  2.5500439565199242  6.6156591395614406   T   T   T
  2.7977769935297956  2.5094387090810093  1.0979643893201079   F   F   F
  2.7072508226987000  5.9724295068642848  7.0786277938053042   T   T   T
  0.3421619017093695  1.7541762254339419  1.6892276585494332   F   F   F
  5.2533920853502334  1.7541762254339528  1.6892276585494219   F   F   F
 -1.7290243557662812  7.9453299031531319  5.3215805243281000   T   T   T
  5.9345473004400144  3.5293964616284481 10.5561116250518126   T   T   T
 -2.2066376581391918  5.9504433403879426  7.0692085366370696   T   T   T
  1.1145795241951399  3.4978960729621043 13.2161587379951833   T   T   T
  3.2564719793906267  1.4073680762739060 14.1050071036968259   T   T   T
  3.4884071736374369  2.2573823821792787 11.9219069438744167   T   T   T
  4.0949027506462574  3.5811091597998703 13.7760659382358597   T   T   T
  3.7674974994221624  1.9920217675489300  2.2994260662927388   F   F   F
 -3.6677126774037538  6.1786562164907384  7.7289354946210587   T   T   T
 -3.5993477760391466  6.2518063166250677  2.2994260662927690   F   F   F
 -1.2008655839717384  1.9361556057572409  7.7467188837272651   T   T   T
 -1.1437326842187019  1.9920217675489191  2.2994260662927504   F   F   F
  7.1955052381434568  0.0111426055629280  4.0930638889837860   T   T   T
  1.2526692660018497  2.2732571771281975  5.9165158462731995   T   T   T
 -0.1472598575618716  4.1653637125159815  9.5655289296328636   T   T   T
  2.3106511286732418 -0.1458076356015346  9.5586907391233353   T   T   T
  3.7175780374832534  6.5366705363355573  5.9229925535044483   T   T   T
  2.2790026366919123  0.0137960694355165  4.0910272854800365   T   T   T
  6.1747148593754719  2.2768279447111199  5.9282663623400511   T   T   T
  3.6987940987935453  1.9094063756255644  7.7221074912051462   T   T   T
  1.3118824076017215  6.2518063166250721  2.2994260662927575   F   F   F
  1.2464410880525918  6.2091783180174964  7.7328012546989093   T   T   T
  4.7396294667552565  4.2696995214323472  4.0942550566014804   T   T   T
  7.2426684362144007 -0.1312402309711767  9.5769440914952195   T   T   T
 -1.2021660961919853  6.5373545172599030  5.9204826267106689   T   T   T
 -0.1751428252028534  4.2735698174685872  4.0926904850716941   T   T   T
  4.7524013033500703  4.1194585083904567  9.5473397850116619   T   T   T
  4.3774471360220204  2.1186100211714880 13.2372023266945913   T   T   T
