F  H  O  P  Si
 1.0000000000000000
     9.8224603672816997    0.0000000000000000    0.0000000000000000
    -4.9112301836409040    8.5195690981523047    0.0000000000000000
     0.0000000000000583    0.0360251379324295   26.9999796582416955
 F   H   O   P   Si 
   3  16  48   1  20
Selective dynamics
Cartesian
  3.3354641189262400  4.3476028667477982 14.3549533003248726   T   T   T
  5.3391653589201491  4.1376503233353734 13.2149282500029361   T   T   T
  3.3472251549009484  3.6068300603560255 12.1618565919366475   T   T   T
  4.3719620884486998  8.2395676933613817 10.5234289193362169   T   T   T
  5.2533920853502183  6.7684119324851029  0.0979647184448421   F   F   F
  1.9163916866628221  3.9798261464521660 10.5235667461898377   T   T   T
 -0.5392625643282033  8.2397140669836322 10.5235796820237475   T   T   T
  6.8275475488350565  3.9798824766503857 10.5234681702816051   T   T   T
 -1.1574893827078641  6.0619199461042053 10.4649709909187703   T   T   T
  6.2093614984391943  1.8020233294374106 10.4650025553499813   T   T   T
  1.2982495928316822  1.8021202830106287 10.4649737506658997   T   T   T
 -2.1134531901110734  6.0131494488380266  0.6892279876741785   F   F   F
  5.2533920853502361  1.7533648997618962  0.6892279876741498   F   F   F
  2.7977769935297903  6.0131494488380381  0.6892279876741672   F   F   F
  2.7977769935297974  2.5086273834089519  0.0979647184448361   F   F   F
  0.3421619017093552  6.7684119324850922  0.0979647184448536   F   F   F
  3.7538449447450941  6.0617606222067097 10.4650002869181975   T   T   T
  7.7090071771706619  2.5086273834089625  0.0979647184448247   F   F   F
  0.3421619017093678  1.7533648997618856  0.6892279876741612   F   F   F
  3.8674442384708851  2.9102016156927553  9.0424382789057614   T   T   T
  5.1773559802907210  6.8293989769272567  6.6171399666537836   T   T   T
  1.3399007851670373  7.3638012514587210  3.4881581416814376   F   F   F
  3.7955158769874759  3.1040167023825798  3.4881581416814202   F   F   F
  3.5120472130167597  7.7644977606421568 10.5506067061870077   T   T   T
 -3.5713293984738357  7.3638012514587095  3.4881581416814496   F   F   F
 -1.0436617385260669  2.9101027734165359  9.0423954673521649   T   T   T
 -1.1157143066533917  3.1040167023825673  3.4881581416814322   F   F   F
  1.2762365721025499  0.8104586458962921 10.3837456484092456   T   T   T
 -3.4993552141492197  7.1698922716565718  9.0425061987889617   T   T   T
  1.4119321687363979  7.1700017148549513  9.0423621509229442   T   T   T
  5.1788514105053105  1.7107666621673576  7.0765632785030670   T   T   T
  7.7090071771706645  2.5094387090810217  1.0979643893200972   F   F   F
  0.2661021912980848  6.8295248735126384  6.6171635894184631   T   T   T
  0.3421619017093551  6.7692232581571501  1.0979643893201259   F   F   F
  2.7216959739323765  2.5696831410911920  6.6171222532460297   T   T   T
  2.7977769935297956  2.5094387090810093  1.0979643893201088   F   F   F
  2.7231950600327779  5.9706098523800248  7.0765995108322688   T   T   T
  0.3421619017093689  1.7541762254339426  1.6892276585494339   F   F   F
  2.7977769935297907  6.0139607745100943  1.6892276585494399   F   F   F
  5.2533920853502325  1.7541762254339530  1.6892276585494224   F   F   F
  7.6329657669284456  2.5696672600852168  6.6172059776401122   T   T   T
  3.2014847936999180  7.9423164409653131  5.3126710563895747   T   T   T
  1.3550452022139181  1.1774769870639705  4.7415763387918828   T   T   T
  5.6571112185304360  3.6825439985115014  5.3126507088878769   T   T   T
  0.2676182446477888  1.7108567329190294  7.0766409772247183   T   T   T
  5.5523710921142184  4.8160152724324092  8.2947960122714797   T   T   T
  0.7737936967446194  4.8516745489290471  2.9198781769704407   F   F   F
  0.6411044198716207  4.8161208208773951  8.2949190202135625   T   T   T
  8.1406389722059345  0.5918899998529168  2.9198781769704119   F   F   F
  8.0080460752712170  0.5562260097461101  8.2948278742486874   T   T   T
  5.6850238803854856  4.8516745489290605  2.9198781769704287   F   F   F
  3.7319338687342904  5.0701501515525571 10.3837661296519830   T   T   T
 -1.1006083514187368  5.4372591182641461  4.7415564453329075   T   T   T
 -1.1793923563176645  5.0702480799920711 10.3837751290306599   T   T   T
  6.2662078660181733  1.1775021026430339  4.7415419964840524   T   T   T
  6.1875207660029998  0.8103988866828885 10.3837886794462886   T   T   T
  3.8106010816777252  5.4372830846315425  4.7415157776920305   T   T   T
  3.0966132216133668  0.5564072372010780  8.2949012614680413   T   T   T
 -2.1879820061171449  5.9705630739570292  7.0765885638355037   T   T   T
  3.2294087885650606  0.5918899998529064  2.9198781769704234   F   F   F
  0.7459234985121653  3.6825187688748815  5.3126183535507971   T   T   T
  5.2533920853502227  6.7692232581571625  1.0979643893201148   F   F   F
  1.0565338534507347  3.5045887590626443 10.5505599913840467   T   T   T
 -1.7096848836371454  7.9423095089350850  5.3126048436431272   T   T   T
 -1.3990138999955437  7.7642567714880117 10.5506511884816767   T   T   T
  5.9677277009196681  3.5046133605168350 10.5506341091684384   T   T   T
 -2.1134531901110751  6.0139607745100871  1.6892276585494512   F   F   F
  4.0771660625811146  3.2335585656502124 13.5135398738984929   T   T   T
  4.7401019893226932  4.2705851697780473  4.0948789387599565   T   T   T
  1.2640527797630292  6.2061747918051937  7.7382343953831434   T   T   T
  1.3118824076017215  6.2518063166250721  2.2994260662927579   F   F   F
  3.7197022358213214  1.9464402062880919  7.7381962870621184   T   T   T
  6.1859834782601313  2.2811153042577854  5.9246070011798286   T   T   T
  3.7303108218829060  6.5408509275329711  5.9246200382550338   T   T   T
  2.2845044449558038  0.0107920767116051  4.0948814979724881   T   T   T
  2.3381842962156321 -0.1170752467274913  9.5723208378622964   T   T   T
 -0.1711080889084466  4.2705776354656129  4.0948922631961766   T   T   T
 -0.1175063405091698  4.1427349468901404  9.5722607031191593   T   T   T
  1.2746727837186009  2.2810705176548711  5.9246286784732147   T   T   T
  7.1957138144376858  0.0108070079937844  4.0948991432310322   T   T   T
  4.7938091760287831  4.1427211946396776  9.5722076986419751   T   T   T
 -1.1437326842187019  1.9920217675489200  2.2994260662927508   F   F   F
 -1.1915226493615745  1.9463060456151180  7.7382335506846047   T   T   T
 -3.5993477760391452  6.2518063166250659  2.2994260662927695   F   F   F
 -3.6471189205732855  6.2061329559153871  7.7382385570311047   T   T   T
  3.7674974994221619  1.9920217675489305  2.2994260662927406   F   F   F
  7.2493805527063611 -0.1170018938212847  9.5721840412822488   T   T   T
 -1.1808861435593079  6.5408817824953873  5.9246055406148459   T   T   T
