H  N  F  Si
 1.0000000000000000
    11.6535095964131994    0.0000000000000000    0.0000000000000000
     0.0000000000000000   10.0922353537395004    0.0000000000000000
     0.0000000000000000    0.0000000000000000   24.2900245128767978
 H   N   F   Si 
  64  16  48   8
Selective dynamics
Cartesian
  0.8401035982037039  0.4853002504050166  5.2204301530830275   T   T   T
  7.9012122324956344  7.9258454606021980  3.8043095294545042   F   F   F
  4.9878348333923128  2.8797277837324491  3.8043095294545042   F   F   F
 10.8145896315989134  2.8797277837324491  3.8043095294545042   F   F   F
  3.7681345748031205  2.1694097381792754  8.3908971702255251   T   T   T
  9.5948888308777978  2.1694095019145005  8.3908973453049001   T   T   T
  0.8547576074760566  7.2155272033514795  8.3908972495474430   T   T   T
  6.6815117162935342  7.2155272902240570  8.3908975712737419   T   T   T
  2.9133773991032781  9.3788974631443622  3.8043095294545042   F   F   F
  7.8906782349118316  2.1785949584339339  8.3908976293554680   T   T   T
  4.9773005299264410  7.2247132134663490  8.3908975677610567   T   T   T
 10.8040559182158589  7.2247130559468111  8.3908974296358654   T   T   T
  2.9133774236897780  1.6820389962830113  7.0551324758300851   T   T   T
  8.7401319292659885  1.6820389634961499  7.0551327381037625   T   T   T
  0.0000000377552813  6.7281567900832702  7.0551326895116642   T   T   T
  5.8267547839685152  6.7281568398909615  7.0551325779314524   T   T   T
  2.0639236562973480  2.1785951320604258  8.3908971888533284   T   T   T
  6.6668580366113721  0.4853002705950500  5.2204298593653995   T   T   T
  3.7534807983754530  5.5314181864020417  5.2204300234976051   T   T   T
  9.5802351457675066  5.5314182305252446  5.2204297155592680   T   T   T
  2.9080741211768268  0.6981124797500908  8.3908974940223437   T   T   T
  8.7348289172325906  0.6981124419165964  8.3908974134912508   T   T   T
 -0.0053033509451504  5.7442306923417679  8.3908974005777441   T   T   T
  5.8214515425208857  5.7442308094178092  8.3908972209162282   T   T   T
  0.8412563922912988  9.6065357491926271  0.5000000000000000   F   F   F
  6.6680111904978983  9.6065357491926271  0.5000000000000000   F   F   F
  3.7546337913945766  4.5604180723228787  0.5000000000000000   F   F   F
  9.5813885896011755  4.5604180723228787  0.5000000000000000   F   F   F
  2.9133773991032781  8.4101961281162527  2.4321633756321481   F   F   F
  8.7401321973098778  8.4101961281162527  2.4321633756321481   F   F   F
 -0.0000000000000436  3.3640784512465056  2.4321633756321481   F   F   F
  5.8267547982065562  3.3640784512465056  2.4321633756321481   F   F   F
  7.8997977145860530  5.5310180907950528  5.2204299468377471   T   T   T
  8.7401321973098778  9.3788974631443622  3.8043095294545042   F   F   F
 -0.0000000000000436  4.3327797862746138  3.8043095294545042   F   F   F
  5.8267547982065562  4.3327797862746138  3.8043095294545042   F   F   F
  4.9854984059152585  9.6065357491926289  0.5000000000000000   F   F   F
 10.8122532041218591  9.6065357491926289  0.5000000000000000   F   F   F
  2.0721210068119369  4.5604180723228804  0.5000000000000000   F   F   F
  7.8988758050185366  4.5604180723228804  0.5000000000000000   F   F   F
  0.0000000000000009  0.0000000000000000  1.8667589503465760   F   F   F
  5.8267547982066006  0.0000000000000000  1.8667589503465760   F   F   F
  2.9133773991032790  5.0461176768697538  1.8667589503465760   F   F   F
  8.7401321973098796  5.0461176768697538  1.8667589503465760   F   F   F
  0.0000002060694835  0.0000000472592664  6.5934114217244479   T   T   T
  5.8267549070647773  0.0000002693251001  6.5934113821997382   T   T   T
  2.9133773362103219  5.0461177241042865  6.5934111737020507   T   T   T
  8.7401318433521507  5.0461179453532630  6.5934112764794079   T   T   T
  8.7403631661087431  4.0759161469093419  5.2204300067574323   T   T   T
  2.0744574342890347  7.9258454606021980  3.8043095294545042   F   F   F
  2.0730432723974239  5.5310182319601742  5.2204295223539514   T   T   T
 10.8131756007002249  0.4849002641315522  5.2204303077709824   T   T   T
  4.9864206303612555  0.4849003505052414  5.2204298858027673   T   T   T
  5.8267547982065562  0.9713992090937540  0.5000000000000000   F   F   F
 -0.0000000000000436  0.9713992090937540  0.5000000000000000   F   F   F
  8.7401321973098778  6.0175168859635022  0.5000000000000000   F   F   F
  2.9133773991032781  6.0175168859635022  0.5000000000000000   F   F   F
  2.9136085627067363  4.0759172335243203  5.2204301797316690   T   T   T
  0.0002310144214676  9.1220348252907666  5.2204304339193062   T   T   T
  5.8269857996660681  9.1220346623720090  5.2204303455520362   T   T   T
  3.7522973639175210  7.9258454606021980  3.8043095294545042   F   F   F
  9.5790521621241211  7.9258454606021980  3.8043095294545042   F   F   F
  0.8389199648141999  2.8797277837324504  3.8043095294545042   F   F   F
  6.6656747630207995  2.8797277837324504  3.8043095294545042   F   F   F
  0.0000000000000009  0.0000000000000000  0.8416304243563442   F   F   F
  2.9133773991032781  8.4101961281162527  3.4593945362622507   F   F   F
  8.7401321973098796  5.0461176768697538  0.8416304243563442   F   F   F
  2.9133773991032790  5.0461176768697538  0.8416304243563442   F   F   F
  5.8267547982066006  0.0000000000000000  0.8416304243563442   F   F   F
  8.7401321973098778  8.4101961281162527  3.4593945362622507   F   F   F
  8.7401317060978592  5.0461182943723548  5.5635017550033785   T   T   T
  2.9133777822887410  5.0461170454837143  5.5635016308254590   T   T   T
  5.8267546383998781 -0.0000002453348321  5.5635017878582662   T   T   T
 -0.0000004317960229 -0.0000003421653972  5.5635016074451089   T   T   T
  5.8267553895043527  6.7281562912128434  8.0841955682913653   T   T   T
 -0.0000002988451661  6.7281563283907317  8.0841954347092422   T   T   T
  8.7401320620153289  1.6820391005121726  8.0841954154019184   T   T   T
  2.9133774586764187  1.6820391723121890  8.0841955197478708   T   T   T
  5.8267547982065562  3.3640784512465056  3.4593945362622507   F   F   F
 -0.0000000000000436  3.3640784512465056  3.4593945362622507   F   F   F
  5.8255705791170094  4.7721448368782955  5.9183557227604053   T   T   T
 -0.0011837905851396  4.7721452988431352  5.9183559549837961   T   T   T
  8.7389478692269495  9.8182633494936429  5.9183555868966105   T   T   T
  2.9121933597463507  9.8182632102311800  5.9183557781383413   T   T   T
  7.0480197715992254  4.0694162189105381  7.9060686226251331   T   T   T
  1.2212653851357547  4.0694163962017038  7.9060684529141732   T   T   T
  9.9613970344861844  9.1155343677415406  7.9060683659952096   T   T   T
  4.1346423312893581  9.1155341687797549  7.9060684629972586   T   T   T
  7.0455803710100859  7.4318461750463234  1.3166483637921624   F   F   F
  1.2188255728034860  7.4318461750463234  1.3166483637921624   F   F   F
  9.9589577701134075  2.3857284981765692  1.3166483637921624   F   F   F
  4.1322029719068079  2.3857284981765692  1.3166483637921624   F   F   F
  5.8267547982065562  8.1378756805668004  3.3010724808649616   F   F   F
 -0.0000000000000436  8.1378756805668004  3.3010724808649616   F   F   F
  8.7401321973098778  3.0917580036970467  3.3010724808649616   F   F   F
  2.9133773991032776  3.0917580036970467  3.3010724808649616   F   F   F
  1.6945479802980912  7.7051376099467737  5.9183555576053291   T   T   T
  7.5213027017788461  7.7051377036991155  5.9183552377513475   T   T   T
  4.6079251647362849  2.6590195279645115  5.9183558453584135   T   T   T
 10.4346797587317379  2.6590192801500550  5.9183556049117838   T   T   T
  2.9135854747955956  6.9998807288883178  7.9060685573533602   T   T   T
  8.7403400760009600  6.9998811156239658  7.9060684007234840   T   T   T
  0.0002086814917464  1.9537630684705836  7.9060687960189906   T   T   T
  5.8269632035111849  1.9537626595179651  7.9060684766571834   T   T   T
 10.4346840236096270  7.4318461750463234  1.3166483637921624   F   F   F
  4.6079292254030264  7.4318461750463234  1.3166483637921624   F   F   F
  7.5213066245063480  2.3857284981765683  1.3166483637921624   F   F   F
  1.6945518262997479  2.3857284981765683  1.3166483637921624   F   F   F
  7.0476070722104200  6.0232975134561082  3.3010724808649616   F   F   F
  1.2208522740038208  6.0232975134561082  3.3010724808649616   F   F   F
  9.9609844713137434  0.9771798365863533  3.3010724808649616   F   F   F
  4.1342296731071428  0.9771798365863533  3.3010724808649616   F   F   F
  4.1333912458465587  7.7071885674684495  5.9183556167590563   T   T   T
  9.9601457137586120  7.7071886227409738  5.9183555808348229   T   T   T
  1.2200137840599901  2.6610705997069792  5.9183555064404310   T   T   T
  7.0467682705307588  2.6610707476163382  5.9183557418704940   T   T   T
  1.6919043517416430  9.1151738274997651  7.9060685606229750   T   T   T
  7.5186587907981544  9.1151738348813449  7.9060683542300252   T   T   T
  4.6052816773604697  4.0690558728179091  7.9060686691915443   T   T   T
 10.4320357809389588  4.0690558873830840  7.9060686824097113   T   T   T
  1.6925251250994147  0.9771798365863532  3.3010724808649616   F   F   F
  7.5192799233060139  0.9771798365863532  3.3010724808649616   F   F   F
  4.6059025242026914  6.0232975134561082  3.3010724808649616   F   F   F
 10.4326573224092911  6.0232975134561082  3.3010724808649616   F   F   F
  2.9133773991032781  0.2746606805166148  1.3166483637921624   F   F   F
  8.7401321973098778  0.2746606805166148  1.3166483637921624   F   F   F
 -0.0000000000000436  5.3207783573863692  1.3166483637921624   F   F   F
  5.8267547982065562  5.3207783573863692  1.3166483637921624   F   F   F
  5.8267547421417794  3.3640784502793548  6.9263801906148412   T   T   T
  0.0000004723201951  3.3640784255266407  6.9263796612675863   T   T   T
  8.7401317402272749  8.4101963212310391  6.9263798423201237   T   T   T
  2.9133773129773100  8.4101964916016225  6.9263799038052420   T   T   T
  5.8267547982065562  6.7281569024930041  2.2987940834959804   F   F   F
 -0.0000000000000436  6.7281569024930041  2.2987940834959804   F   F   F
  8.7401321973098778  1.6820392256232506  2.2987940834959804   F   F   F
  2.9133773991032781  1.6820392256232506  2.2987940834959804   F   F   F
