H  N  F  Si I                           
   1.00000000000000     
    11.6535095964131994    0.0000000000000000    0.0000000000000000
     0.0000000000000000   10.0922353537395004    0.0000000000000000
     0.0000000000000000    0.0000000000000000   40.0000000000000000
   H    N    F    Si   I 
    74    16    83     8     5
Selective dynamics
Direct
  0.5721891019466128  0.9518739320355891  0.0125000000000028   F   F   F
  0.8342822668923600  0.5172034078165526  0.1434226418403530   T   T   T
  0.3200644310941982  0.5153964782127908  0.1322939775061952   T   T   T
  0.5409763162454331  0.0739642114470461  0.1317707811395980   T   T   T
  0.5000000000000000  0.0000000000000000  0.0466689737586634   F   F   F
  0.7500000000000000  0.5000000000000000  0.0466689737586634   F   F   F
  0.4999999999999929  0.3333333333333357  0.0608040843908029   F   F   F
  0.7500000000000000  0.8333333333333357  0.0608040843908029   F   F   F
  0.2500000000000000  0.8333333333333357  0.0608040843908029   F   F   F
  0.8221891019466128  0.4518739320355891  0.0125000000000028   F   F   F
  0.3221891019466128  0.4518739320355891  0.0125000000000028   F   F   F
  0.1501357120657822  0.1402961945877225  0.2064917001224601   T   T   T
  0.8062947318811280  0.2365543427259360  0.2089640456857373   T   T   T
  0.2706479935404575  0.9065515763462568  0.2716245476290464   T   T   T
  0.6681674785338311  0.6922974349350112  0.2907783039107874   T   T   T
  0.0548802293558176  0.7439634123684794  0.2124349380266059   T   T   T
  0.0352456044424415  0.8956102604092235  0.3839590953056543   T   T   T
  0.4689687136986685  0.6286280472932777  0.2299406861013089   T   T   T
  0.7613058328592865  0.8578521584967359  0.2710452896402406   T   T   T
  0.5354672173865567  0.9650519441429672  0.1631310852397253   T   T   T
  0.6780113893695585  0.7853409262463771  0.0951077382363650   F   F   F
  0.9999999999999929  0.3333333333333357  0.0608040843908029   F   F   F
  0.1679345037274851  0.7588123590047943  0.2939609936449658   T   T   T
  0.5008171938969872  0.9161640233091856  0.1243259578923379   T   T   T
  0.0304918282931215  0.9030797297445645  0.1420613978057060   T   T   T
  0.4539591599359480  0.7704021592784797  0.2081930815622854   T   T   T
  0.9437409248841574  0.6635349322882476  0.2306427315715187   T   T   T
  0.2787061760452222  0.1982090949373430  0.1938088594509220   T   T   T
  0.9999999999999929  0.4293181475072529  0.0951077382363650   F   F   F
  0.0483482953901175  0.0476811935149515  0.1220313345129311   T   T   T
  0.2314308732747141  0.2226317905121156  0.2333263327167178   T   T   T
  0.5856425500542305  0.6945395944798702  0.2107619139965309   T   T   T
  0.7597494009652215  0.1436032520387425  0.2412897772032571   T   T   T
  0.6997200856259497  0.5777306414769023  0.1380014819364415   T   T   T
  0.2500000000000000  0.5000000000000000  0.0466689737586634   F   F   F
  0.7500000000000000  0.9293181475072458  0.0951077382363650   F   F   F
  0.9498485872870208  0.6802233688763279  0.1888766694485089   T   T   T
  0.0000000000000000  0.0000000000000000  0.0466689737586634   F   F   F
  0.0721891019466128  0.9518739320355891  0.0125000000000028   F   F   F
  0.4791352903603389  0.6263325327744282  0.1883575333423056   T   T   T
  0.0413992593140070  0.5765102195795074  0.2086565826265390   T   T   T
  0.8082366560724773  0.0657731449473081  0.2074636176875490   T   T   T
  0.4280113893695585  0.2853409262463771  0.0951077382363650   F   F   F
  0.2229872477227912  0.3071289683147300  0.2854032155926187   T   T   T
  0.4999999999999929  0.4293181475072529  0.0951077382363650   F   F   F
  0.4278108980533872  0.9518739320355891  0.0125000000000028   F   F   F
  0.9278108980533872  0.9518739320355891  0.0125000000000028   F   F   F
  0.1778108980533801  0.4518739320355891  0.0125000000000028   F   F   F
  0.6778108980533801  0.4518739320355891  0.0125000000000028   F   F   F
  0.3219886106304344  0.7853409262463771  0.0951077382363650   F   F   F
  0.7500000000000000  0.5962521359288147  0.0125000000000028   F   F   F
  0.6820545038698667  0.1469671421907920  0.2062648636916551   T   T   T
  0.1822762426870586  0.5545583969949203  0.1247127032052774   T   T   T
  0.9152574773669077  0.0027913182017985  0.1349232711533520   T   T   T
  0.4112909981267882  0.0173430137676569  0.1450196271031040   T   T   T
  0.0719886106304344  0.2853409262463771  0.0951077382363650   F   F   F
  0.9999999999999929  0.0962521359288147  0.0125000000000028   F   F   F
  0.4999999999999929  0.0962521359288147  0.0125000000000028   F   F   F
  0.1780113893695585  0.7853409262463771  0.0951077382363650   F   F   F
  0.8485208871663316  0.4550784140823795  0.4378762132834252   T   T   T
  0.2733259191489401  0.0698757520158923  0.2205830413524926   T   T   T
  0.8080901649842370  0.0072268447604980  0.4030441017582103   T   T   T
  0.9280113893695585  0.2853409262463771  0.0951077382363650   F   F   F
  0.4467057101087152  0.6322031147505113  0.4007321210086807   T   T   T
  0.9174296439895696  0.5734483157888867  0.2972460364006473   T   T   T
  0.2500000000000000  0.5962521359288147  0.0125000000000028   F   F   F
  0.7351892054330247  0.4219950174344739  0.1248574126841851   T   T   T
  0.7249470581135997  0.4565382303627170  0.1657679622780190   T   T   T
  0.2338677236091607  0.5575387253607539  0.1638804841131572   T   T   T
  0.8219886106304344  0.7853409262463771  0.0951077382363650   F   F   F
  0.2500000000000000  0.9293181475072458  0.0951077382363650   F   F   F
  0.5719886106304344  0.2853409262463771  0.0951077382363650   F   F   F
  0.0141060901537623  0.0478639232077489  0.1626842239237645   T   T   T
  0.2124430286959531  0.4106848653548034  0.1438821099009149   T   T   T
  0.7500000000000000  0.8333333333333357  0.0864848634065538   F   F   F
  0.9999999999999929  0.3333333333333357  0.0864848634065538   F   F   F
  0.4999999999999929  0.3333333333333357  0.0864848634065538   F   F   F
  0.2343807732478607  0.1572181769524931  0.2137056966095469   T   T   T
  0.7640719760574308  0.1494457732651394  0.2157913858636004   T   T   T
  0.9976366566319773  0.6657321101329523  0.2103892547798911   T   T   T
  0.2376205961861494  0.5084996412709933  0.1410739056341564   T   T   T
  0.4965649664330142  0.9939922837814115  0.1409241289062784   T   T   T
  0.4974053831746471  0.6805751277462682  0.2095575724392244   T   T   T
  0.0000000000000000  0.0000000000000000  0.0210407606089120   F   F   F
  0.2500000000000000  0.8333333333333357  0.0864848634065538   F   F   F
  0.7500000000000000  0.5000000000000000  0.0210407606089120   F   F   F
  0.2500000000000000  0.5000000000000000  0.0210407606089120   F   F   F
  0.5000000000000000  0.0000000000000000  0.0210407606089120   F   F   F
  0.0018280512303894  0.9997507212868811  0.1401998290207673   T   T   T
  0.7477071183941225  0.4937067596018171  0.1427329603679954   T   T   T
  0.0156284322757121 -0.0072779223762006  0.3076133794924679   T   T   T
  0.6045887131871979  0.7363924754581319  0.0329162090948074   F   F   F
  0.3495360995899240  0.8911510066353485  0.2026493754469268   T   T   T
  0.8475198450906095  0.9063618632842696  0.1995939519059809   T   T   T
  0.7592748341533847  0.9616277260300412  0.1467109200141578   T   T   T
  0.6452373734364443  0.0968249156242962  0.0825268120216265   F   F   F
  0.2438062099422363  0.6815969250043001  0.1959294444466268   T   T   T
  0.9000273218785303  0.2552843666413118  0.1481724069953025   T   T   T
  0.3789585245644091  0.2627537099796849  0.1629039514857980   T   T   T
  0.6501207972702372  0.7548271041718677  0.1481254964969999   T   T   T
  0.1420442437477560  0.7750172485645245  0.1481235681264305   T   T   T
  0.2500000000000000  0.3063501687514076  0.0825268120216265   F   F   F
  0.1045887131871979  0.7363924754581319  0.0329162090948074   F   F   F
  0.9081928675179733  0.9745345883971213  0.3681422114641135   T   T   T
  0.7683753670682927  0.1924029725032559  0.3457391454681742   T   T   T
  0.8796814992715095  0.1922537884957232  0.2878081761504333   T   T   T
  0.5370749080661269  0.3455583916467594  0.3130538360902667   T   T   T
  0.3739292055033283  0.2744912926928629  0.2785424191297331   T   T   T
  0.2500000000000000  0.0272150490837362  0.0329162090948074   F   F   F
  0.3952373734364372  0.5968249156242962  0.0825268120216265   F   F   F
  0.1079784203340958  0.2792626149575380  0.1494722414550273   T   T   T
  0.8633833773856896  0.4932439470541262  0.4589164280010302   T   T   T
  0.6835782864412413  0.7370775954112614  0.2700904416800949   T   T   T
  0.6100496752143045  0.4017785664464450  0.2030151859473912   T   T   T
  0.3199582741301526  0.9850166311445127  0.2728450997771131   T   T   T
  0.9838751067349676  0.4747231692082111  0.1521709391728256   T   T   T
  0.3547626265635557  0.0968249156242962  0.0825268120216265   F   F   F
  0.8547626265635557  0.0968249156242962  0.0825268120216265   F   F   F
  0.1047626265635557  0.5968249156242962  0.0825268120216265   F   F   F
  0.6047626265635557  0.5968249156242962  0.0825268120216265   F   F   F
  0.1454112868128021  0.2363924754581319  0.0329162090948074   F   F   F
  0.6454112868128021  0.2363924754581319  0.0329162090948074   F   F   F
  0.3517379618784984  0.7693064811516148  0.1497124633916226   T   T   T
  0.8954112868127950  0.7363924754581319  0.0329162090948074   F   F   F
  0.0904556557509493  0.4042001610056977  0.2009230927355579   T   T   T
  0.7471223836864098  0.0325049299978346  0.4172581006955232   T   T   T
  0.2520699293018623  0.9794469421222154  0.1540229321937197   T   T   T
  0.7350620239101653  0.7031397682125961  0.2018732726688823   T   T   T
  0.0078012479999550  0.1803119707224370  0.1963734773113093   T   T   T
  0.5122809256083655  0.1936706996978590  0.2073220987055613   T   T   T
  0.8577419521830121  0.7491459962632498  0.1541101013654143   T   T   T
  0.1452373734364443  0.0968249156242962  0.0825268120216265   F   F   F
  0.7500000000000000  0.3063501687514076  0.0825268120216265   F   F   F
  0.9999999999999929  0.8063501687514076  0.0825268120216265   F   F   F
  0.3545887131871979  0.2363924754581319  0.0329162090948074   F   F   F
  0.8545887131871979  0.2363924754581319  0.0329162090948074   F   F   F
  0.3164339113040091  0.9288051287419312  0.3422134407900190   T   T   T
  0.6486578049052741  0.6041300935773536  0.3249278003759054   T   T   T
  0.4999999999999929  0.5272150490837362  0.0329162090948074   F   F   F
  0.8952373734364372  0.5968249156242962  0.0825268120216265   F   F   F
  0.0264257344574502  0.5783411437682279  0.3796240244328297   T   T   T
  0.2215557642954717  0.4464623924397097  0.3903335177630924   T   T   T
  0.3248712035706118  0.5858320849945600  0.3413309780225249   T   T   T
  0.0999089201108853  0.8523475945022987  0.3935963330880279   T   T   T
  0.5038306519919342  0.8536710151589323  0.3643803138220398   T   T   T
  0.4662216234934725  0.7869473372002406  0.3055187941564610   T   T   T
  0.1271199797677901  0.7231877993973980  0.3299075672564958   T   T   T
  0.4814702280906056  0.4730279398245431  0.1584347330509574   T   T   T
  0.3954112868127950  0.7363924754581319  0.0329162090948074   F   F   F
  0.4999999999999929  0.8063501687514076  0.0825268120216265   F   F   F
  0.8834498920825299  0.3758539239970731  0.2001289842586675   T   T   T
  0.4072013962753735  0.3974194071591349  0.2127358190997961   T   T   T
  0.6374717018429386  0.9136847295453947  0.1939620767775589   T   T   T
  0.1411720967436837  0.8904829153622630  0.2010573614392227   T   T   T
  0.5853819249656619  0.2644120920423320  0.1528394433239536   T   T   T
  0.5836445217081019  0.1565714361896687  0.2755567264632252   T   T   T
  0.8091784516192739  0.9374806161542103  0.2718528444420977   T   T   T
  0.1952837262433677  0.7840011836446141  0.2719426120239871   T   T   T
  0.4786824880581591  0.5180968497850776  0.2722709890448394   T   T   T
  0.9816710232154076  0.1896054200380994  0.3436382701053123   T   T   T
  0.9999999999999929  0.5272150490837362  0.0329162090948074   F   F   F
  0.7500000000000000  0.0272150490837362  0.0329162090948074   F   F   F
  0.1370644482917946  0.4774273309880688  0.3335793404944629   T   T   T
  0.5899285473788186  0.5267924270815660  0.3870466655498965   T   T   T
  0.6854342469789304  0.3939537557166701  0.2703843820873915   T   T   T
  0.1485467996688900  0.2943501185768901  0.2764539537781724   T   T   T
  0.7942234012868071  0.4024050133304217  0.3940593252084822   T   T   T
  0.8512035173590690  0.4731148317272029  0.3300664398743900   T   T   T
  0.7786249874922010  0.6334493776371952  0.3729613243250086   T   T   T
  0.6387157258707673  0.9497807199641998  0.3236168685709672   T   T   T
  0.9333580751330655  0.6474238302863800  0.2834098618483129   T   T   T
  0.4843892928651608  0.0998740579261768  0.3588228763987051   T   T   T
  0.3750579426538084  0.6638439366608722  0.4084732527979005   T   T   T
  0.9953543449784514  0.3291868190941038  0.1745615651785884   T   T   T
  0.9999999999999929  0.6666666666666643  0.0574698520874009   F   F   F
  0.7500000000000000  0.1666666666666643  0.0574698520874009   F   F   F
  0.4952315585131633  0.3317081984539614  0.1813467181223959   T   T   T
  0.7484210904951414  0.8314213935255236  0.1741304406443459   T   T   T
  0.2467663863188952  0.8312366307526246  0.1752653274445283   T   T   T
  0.4999999999999929  0.6666666666666643  0.0574698520874009   F   F   F
  0.2500000000000000  0.1666666666666643  0.0574698520874009   F   F   F
  0.7131929591847098  0.4786310234600283  0.3571033089326248   T   T   T
  0.4703892889740985  0.9574345104960269  0.3271476383910748   T   T   T
  0.8788952860616636  0.0719495694790911  0.3243611432609980   T   T   T
  0.1828496982740281  0.6011117463908455  0.3656380004464612   T   T   T
  0.5276476186597528  0.3363108655950890  0.2654513479406250   T   T   T
