F  H  I  N  Si
 1.0000000000000000
    11.6531699554687993    0.0000000000000000    0.0000000000000000
     0.0000000000000000   10.0919412160536002    0.0000000000000000
     0.0000000000000000    0.0000000000000000   37.9798949999999991
 F   H   I   N   Si 
 102  83   7  16   8
Selective dynamics
Cartesian
  2.4646889999999999  2.6830460000000005  0.8160649999999999   F   F   F
  8.2920529999999992  9.4116820000000008  7.4012250000000011   T   T   T
  5.3787609999999999  4.3657110000000001  7.4012240000000000   T   T   T
 11.2053449999999994  4.3657110000000001  7.4012240000000000   T   T   T
  2.4638130000000000  1.2740720000000001  2.8003459999999998   F   F   F
  8.2903979999999997  1.2740720000000001  2.8003459999999998   F   F   F
  5.3771050000000002  6.3200430000000001  2.8003459999999998   F   F   F
 11.2036899999999999  6.3200430000000001  2.8003459999999998   F   F   F
  3.6844579999999993  0.5703440000000000  0.8160649999999999   F   F   F
  2.4654680000000000  9.4116809999999997  7.4012250000000011   T   T   T
  9.5110430000000008  0.5703440000000000  0.8160649999999999   F   F   F
  6.5977509999999988  5.6163140000000000  0.8160649999999999   F   F   F
  1.7413940000000001  7.0892210000000002 10.5201060000000020   T   T   T
 -0.0000480000000000  5.0450059999999999 10.5158140000000007   T   T   T
  2.0441699999999998  3.3035630000000000 10.5151760000000003   T   T   T
  3.7856120000000000  5.3477779999999999 10.5194680000000016   T   T   T
  1.8914039999999999  5.1941850000000001 12.1285240000000005   T   T   T
  2.2397900000000002  2.1474180000000000 16.1611419999999981   T   T   T
  0.3422430000000000  4.0409750000000004 16.0023710000000001   T   T   T
  0.7711660000000000  5.6163140000000000  0.8160649999999999   F   F   F
  7.8187459999999991  2.9547490000000001  5.4168610000000008   T   T   T
  1.9921610000000001  2.9547490000000001  5.4168610000000008   T   T   T
 10.7320379999999993  8.0007190000000001  5.4168610000000008   T   T   T
  0.7711660000000000  8.4342629999999996  2.8003459999999998   F   F   F
  9.5110430000000008  3.3882919999999999  2.8003459999999998   F   F   F
  3.6844579999999993  3.3882919999999999  2.8003459999999998   F   F   F
  2.4624999999999999  8.0023859999999996  5.4168610000000008   T   T   T
  8.2890850000000000  8.0023859999999996  5.4168610000000008   T   T   T
  5.3757929999999998  2.9564159999999999  5.4168610000000008   T   T   T
 11.2023770000000003  2.9564159999999999  5.4168610000000008   T   T   T
  3.6834849999999997  7.2986420000000001  7.4012240000000000   T   T   T
  9.5100689999999997  7.2986420000000001  7.4012240000000000   T   T   T
  0.7701920000000000  2.2526720000000000  7.4012240000000000   T   T   T
  6.5967769999999994  2.2526720000000000  7.4012240000000000   T   T   T
 11.2045659999999998  7.7290169999999998  0.8160649999999999   F   F   F
  5.3779810000000001  7.7290169999999998  0.8160649999999999   F   F   F
  8.2912739999999978  2.6830460000000005  0.8160649999999999   F   F   F
  7.8183959999999999  6.3200430000000001  2.8003459999999998   F   F   F
  1.9918110000000000  6.3200430000000001  2.8003459999999998   F   F   F
 10.7316889999999994  1.2740720000000001  2.8003459999999998   F   F   F
  4.9051039999999997  1.2740720000000001  2.8003459999999998   F   F   F
  4.9054539999999998  8.0007190000000001  5.4168610000000008   T   T   T
 -0.0006330000000000  3.4790800000000002 13.3988810000000029   T   T   T
  1.8969149999999999  1.5855230000000000 13.5576520000000009   T   T   T
 -0.0015750000000000  1.7218629999999999 15.1632130000000025   T   T   T
  1.7565430000000000  6.9488019999999997 17.9774289999999972   T   T   T
 10.1503300000000003  2.9474360000000002 10.4655040000000028   T   T   T
  6.2741790000000002  9.6791990000000006 13.4694080000000014   T   T   T
  1.6472049999999998  0.0813180000000000 10.8465730000000011   T   T   T
  9.3026269999999993  0.3853280000000000 14.4283190000000019   T   T   T
  4.7184390000000000  3.3355880000000004 15.7647630000000003   T   T   T
  6.1228179999999988  9.8675169999999994 17.9761409999999984   T   T   T
 10.4455510000000000 10.0946400000000001 17.4892839999999978   T   T   T
  8.8049020000000002  6.3022760000000000 17.4366529999999997   T   T   T
  0.8884729999999998  9.8468420000000005 17.5898319999999977   T   T   T
  3.8210299999999995  8.1666489999999996 17.9434399999999989   T   T   T
 11.0331270000000004  7.0140229999999999 17.8753539999999980   T   T   T
 10.6497180000000000  0.1244490000000000 10.0528960000000005   T   T   T
 10.1171760000000006  3.1340059999999998 17.9769199999999998   T   T   T
  5.7249249999999998  5.2818860000000001 17.9741809999999980   T   T   T
  7.1707919999999987  4.4720420000000001 13.1481510000000004   T   T   T
  3.8502599999999996  0.2816470000000000 13.9428060000000009   T   T   T
  5.3273570000000001  2.4317519999999999 12.6758230000000012   T   T   T
  4.6400560000000004  2.4610150000000002 17.9768229999999996   T   T   T
 11.6999800000000000  7.2553630000000000 13.7172540000000005   T   T   T
  7.9378589999999996  4.0790100000000002 10.3067790000000006   T   T   T
  6.5977509999999988  8.4342629999999996  2.8003459999999998   F   F   F
  8.1870069999999995  1.4400710000000001 10.7373360000000027   T   T   T
  9.6747390000000006  4.5675059999999998 12.2957670000000014   T   T   T
  2.3256619999999999  4.4243110000000003 17.2601409999999973   T   T   T
  2.2565430000000002  5.1435979999999999 14.6737720000000014   T   T   T
  1.6874239999999998  7.6680890000000002 15.3910600000000013   T   T   T
  3.5802909999999994  6.3860770000000002 16.3780659999999969   T   T   T
  5.4543609999999996  9.4793249999999993 15.6944350000000004   T   T   T
  5.3969779999999998  6.9795809999999996 14.7149219999999996   T   T   T
  8.0197740000000000  6.7180429999999998 15.2287220000000012   T   T   T
  8.0771580000000007  9.2177860000000003 16.2082349999999984   T   T   T
  6.3929419999999997  7.5313960000000000 16.9294729999999980   T   T   T
  5.7818730000000000  9.5843830000000008 11.1429190000000009   T   T   T
  7.0218529999999992  7.4192900000000002 12.1360320000000002   T   T   T
  4.6410140000000002  6.2578870000000002 12.5767150000000019   T   T   T
  3.4010340000000001  8.4229810000000001 11.5836020000000008   T   T   T
  5.2559589999999998  7.2709070000000002 10.3866660000000017   T   T   T
  9.4085780000000003  4.1651740000000004 15.9527360000000016   T   T   T
  7.7497850000000001  3.3680650000000005 17.9083620000000003   T   T   T
  6.4666369999999995  1.7733779999999997 16.1699839999999995   T   T   T
  8.1254310000000007  2.5704870000000000 14.2143580000000025   T   T   T
  8.9437700000000007  1.7646019999999998 16.4237809999999982   T   T   T
  9.9238859999999995  1.9285670000000001 12.7263240000000017   T   T   T
  4.9042279999999998  2.6830460000000005  0.8160649999999999   F   F   F
  0.0127600000000000 10.0996520000000007 12.8612540000000006   T   T   T
  1.9909349999999999  7.7290169999999998  0.8160649999999999   F   F   F
  6.5987129999999992  5.0712419999999998  5.4168610000000008   T   T   T
  0.7721289999999998  5.0712419999999998  5.4168610000000008   T   T   T
  9.5120050000000003 10.1172120000000003  5.4168610000000008   T   T   T
  3.6854209999999994 10.1172120000000003  5.4168610000000008   T   T   T
 10.7308129999999977  2.6830460000000005  0.8160649999999999   F   F   F
  1.9911300000000001  4.3640239999999997  7.4012240000000000   T   T   T
 10.7310070000000000  9.4099950000000003  7.4012240000000000   T   T   T
  4.9044220000000003  9.4099950000000003  7.4012240000000000   T   T   T
  7.8175200000000000  7.7290169999999998  0.8160649999999999   F   F   F
  7.8177149999999989  4.3640239999999997  7.4012240000000000   T   T   T
  9.5103939999999998  0.9934280000000000  7.9216670000000011   T   T   T
  4.2689789999999999  4.1559629999999999 15.9130330000000004   T   T   T
  2.8314140000000001  2.4720659999999999  7.9216660000000001   T   T   T
  9.9998529999999999 -0.0000080000000000 14.9405750000000008   T   T   T
  7.4393029999999998  0.7827480000000000  4.7083020000000007   T   T   T
  1.6563049999999999  0.6155680000000000 10.0645840000000000   T   T   T
  4.5260109999999996  5.8287180000000003  4.7083020000000007   T   T   T
  7.1205919999999994 10.1005570000000002 13.5246969999999997   T   T   T
 10.3525960000000001  5.8287190000000004  4.7083020000000007   T   T   T
  3.6838090000000001  0.9934269999999999  7.9216670000000011   T   T   T
  0.7705170000000000  6.0393980000000003  7.9216660000000001   T   T   T
  3.6844579999999993  8.7067730000000001  1.9334300000000002   F   F   F
  1.6121010000000000  9.9032490000000006  0.0000000000000000   F   F   F
  7.4386859999999997  9.9032490000000006  0.0000000000000000   F   F   F
  4.5253930000000002  4.8572780000000000  0.0000000000000000   F   F   F
 10.3519780000000008  4.8572780000000000  0.0000000000000000   F   F   F
  6.5977509999999988  7.0247830000000011  6.5902830000000003   T   T   T
  9.5110430000000008  8.7067730000000001  1.9334300000000002   F   F   F
  0.7711660000000000  3.6608019999999999  1.9334300000000002   F   F   F
  6.5977509999999988  3.6608019999999999  1.9334300000000002   F   F   F
  8.6694420000000001  5.8286350000000002  4.7083020000000007   T   T   T
  9.5110430000000008  9.6740829999999995  3.3038510000000003   F   F   F
  0.7711660000000000  4.6281119999999998  3.3038510000000003   F   F   F
  6.5971019999999987  6.0393980000000003  7.9216660000000001   T   T   T
  5.2052269999999989 10.1021140000000003 17.9778909999999996   T   T   T
  3.6844579999999993  1.9788120000000000  6.5902830000000003   T   T   T
  9.6333420000000007 10.1001010000000004 17.9764179999999989   T   T   T
  8.6733279999999997  8.2231179999999995  3.3038510000000003   F   F   F
 10.9764330000000001  7.3137179999999997 14.3256040000000002   T   T   T
  5.7600360000000004  3.1771470000000002  3.3038510000000003   F   F   F
  3.7058049999999993  2.6165460000000000 17.9761189999999971   T   T   T
 11.5866209999999992  3.1771470000000002  3.3038510000000003   F   F   F
  5.1740930000000001  2.4362560000000002 13.6104370000000010   T   T   T
  4.5381510000000000  2.4709420000000000  7.9216660000000001   T   T   T
  3.2919849999999999 -0.0006050000000000 14.6539160000000024   T   T   T
 10.3647360000000006  2.4709430000000001  7.9216670000000011   T   T   T
  6.9915689999999993  5.2398389999999999 13.6729190000000020   T   T   T
  1.6248579999999999  7.5169130000000006  7.9216660000000001   T   T   T
  6.0719729999999998  5.1554229999999999 17.1020690000000002   T   T   T
  7.4514429999999994  7.5169130000000006  7.9216660000000001   T   T   T
 11.0626379999999997  3.0788509999999998 17.9683180000000000   T   T   T
  3.6844579999999993  9.6740829999999995  3.3038510000000003   F   F   F
 10.1031869999999984 -0.0000050000000000 10.8163289999999996   T   T   T
  8.6579999999999995  2.4720659999999999  7.9216660000000001   T   T   T
 10.7947520000000008  7.9249940000000008 17.9769550000000002   T   T   T
  5.7447070000000000  7.5180369999999996  7.9216660000000001   T   T   T
  3.1757239999999998  8.8591099999999994 17.9764889999999973   T   T   T
 11.5712919999999997  7.5180369999999996  7.9216670000000011   T   T   T
  0.0361420000000000 10.1000040000000020 17.9161059999999992   T   T   T
  6.5977509999999988  4.6281119999999998  3.3038510000000003   F   F   F
  8.0418780000000005  6.1619310000000000 17.9798949999999991   T   T   T
  9.5110430000000008  1.9788120000000000  6.5902830000000003   T   T   T
  0.7711660000000000  7.0247830000000011  6.5902830000000003   T   T   T
  5.7568149999999996  9.9032490000000006  0.0000000000000000   F   F   F
  1.6127180000000001  0.7827480000000000  4.7083020000000007   T   T   T
  2.8435229999999998  4.8572780000000000  0.0000000000000000   F   F   F
  9.5110430000000008  6.3138210000000008  0.0000000000000000   F   F   F
  3.6844579999999993  6.3138210000000008  0.0000000000000000   F   F   F
  3.6845059999999998  4.3710230000000001  4.7083020000000007   T   T   T
  0.7712139999999998  9.4169940000000008  4.7083020000000007   T   T   T
  6.5977509999999988  1.2678499999999999  0.0000000000000000   F   F   F
  6.5977989999999993  9.4169940000000008  4.7083020000000007   T   T   T
  5.7561499999999999  0.7826650000000001  4.7083020000000007   T   T   T
 11.5827349999999996  0.7826650000000001  4.7083020000000007   T   T   T
  2.8428580000000001  5.8286350000000002  4.7083020000000007   T   T   T
  2.8467430000000000  8.2231179999999995  3.3038510000000003   F   F   F
  4.5221730000000004  8.2231179999999995  3.3038510000000003   F   F   F
 10.3487580000000001  8.2231179999999995  3.3038510000000003   F   F   F
  9.5110910000000004  4.3710240000000002  4.7083020000000007   T   T   T
  9.5110430000000008  5.3427920000000011  6.0756550000000002   T   T   T
  3.6844579999999993  5.3427920000000011  6.0756550000000002   T   T   T
  6.5977509999999988  0.2968220000000000  6.0756550000000002   T   T   T
  0.7711660000000000  0.2968220000000000  6.0756550000000002   T   T   T
  1.6088800000000001  3.1771470000000002  3.3038510000000003   F   F   F
  7.4354649999999989  3.1771470000000002  3.3038510000000003   F   F   F
  9.5110430000000008  5.3427920000000011  1.3692119999999999   F   F   F
  3.6844579999999993  5.3427920000000011  1.3692119999999999   F   F   F
  6.5977509999999988  0.2968220000000000  1.3692119999999999   F   F   F
  0.7711660000000000  0.2968220000000000  1.3692119999999999   F   F   F
  0.3378989999999999  9.8869640000000008 13.7250030000000027   T   T   T
  8.6701080000000008  4.8572780000000000  0.0000000000000000   F   F   F
  0.7711660000000000  1.2678499999999999  0.0000000000000000   F   F   F
 11.5833999999999993  9.9032490000000006  0.0000000000000000   F   F   F
  1.7756590000000001  5.9963369999999987 16.3179029999999976   T   T   T
  1.2840620000000000  2.9733660000000000 14.7237920000000013   T   T   T
  5.2049130000000003  8.0165299999999995 12.0759420000000013   T   T   T
  7.7899939999999992  3.1460129999999999 16.0081889999999980   T   T   T
  1.8929840000000000  5.1967160000000003 10.2813090000000003   T   T   T
  8.7519670000000005  3.0120559999999998 11.6707500000000000   T   T   T
  6.7875540000000001  8.1819100000000002 15.2462250000000008   T   T   T
  9.5110419999999998  1.9788120000000000  7.6208780000000012   T   T   T
  3.6844589999999995  1.9788120000000000  7.6208780000000012   T   T   T
  6.5977509999999988  3.6608019999999999  2.9597560000000001   F   F   F
  0.7711660000000000  3.6608019999999999  2.9597560000000001   F   F   F
  0.7711670000000000  0.2968210000000000  5.0474070000000006   T   T   T
  0.7711660000000000  0.2968220000000000  0.3425450000000000   F   F   F
  3.6844579999999993  8.7067730000000001  2.9597560000000001   F   F   F
  9.5110430000000008  5.3427920000000011  0.3425450000000000   F   F   F
  6.5977509999999988  7.0247820000000001  7.6208780000000012   T   T   T
  6.5977509999999988  0.2968220000000000  0.3425450000000000   F   F   F
  9.5110430000000008  8.7067730000000001  2.9597560000000001   F   F   F
  9.5110430000000008  5.3427920000000011  5.0474080000000008   T   T   T
  3.6844579999999993  5.3427930000000012  5.0474080000000008   T   T   T
  6.5977509999999988  0.2968220000000000  5.0474080000000008   T   T   T
  0.7711660000000000  7.0247820000000001  7.6208780000000012   T   T   T
  3.6844579999999993  5.3427920000000011  0.3425450000000000   F   F   F
  9.5110430000000008  8.7067730000000001  6.4203420000000007   T   T   T
  3.6844579999999993  1.9788120000000000  1.8016859999999999   F   F   F
  9.5110430000000008  1.9788120000000000  1.8016859999999999   F   F   F
  0.7711660000000000  7.0247830000000011  1.8016859999999999   F   F   F
  6.5977509999999988  7.0247830000000011  1.8016859999999999   F   F   F
  3.6844579999999993  8.7067730000000001  6.4203420000000007   T   T   T
  0.7711660000000000  3.6608019999999999  6.4203420000000007   T   T   T
  6.5977499999999996  3.6608019999999999  6.4203420000000007   T   T   T
