F  H  I  N  Si
 1.0000000000000000
    11.6531699554687993    0.0000000000000000    0.0000000000000000
     0.0000000000000000   10.0919412160536002    0.0000000000000000
     0.0000000000000000    0.0000000000000000   37.1426110000000023
 F   H   I   N   Si 
  83  64   7  16   8
Selective dynamics
Cartesian
  7.8175200000000000  7.7290169999999998  0.8160649999999999   F   F   F
  6.5967769999999994  2.2526720000000000  7.4012240000000000   T   T   T
 11.2045659999999998  7.7290169999999998  0.8160649999999999   F   F   F
  5.3779810000000001  7.7290169999999998  0.8160649999999999   F   F   F
  8.2912739999999978  2.6830460000000005  0.8160649999999999   F   F   F
  2.4646889999999999  2.6830460000000005  0.8160649999999999   F   F   F
  7.8183959999999999  6.3200430000000001  2.8003459999999998   F   F   F
  1.9918110000000000  6.3200430000000001  2.8003459999999998   F   F   F
 10.7316889999999994  1.2740720000000001  2.8003459999999998   F   F   F
  4.9051039999999997  1.2740720000000001  2.8003459999999998   F   F   F
  4.9054539999999998  8.0007190000000001  5.4168610000000017   T   T   T
 10.7320379999999993  8.0007190000000001  5.4168610000000017   T   T   T
  1.9921610000000001  2.9547490000000001  5.4168610000000017   T   T   T
  7.8187459999999991  2.9547490000000001  5.4168610000000017   T   T   T
  2.4654680000000000  9.4116809999999997  7.4012250000000002   T   T   T
  8.2920529999999992  9.4116820000000008  7.4012250000000002   T   T   T
  5.3787609999999999  4.3657110000000001  7.4012240000000000   T   T   T
 11.2053449999999994  4.3657110000000001  7.4012240000000000   T   T   T
  0.7701920000000000  2.2526720000000000  7.4012240000000000   T   T   T
  2.4638130000000000  1.2740720000000001  2.8003459999999998   F   F   F
  9.5100689999999997  7.2986420000000001  7.4012240000000000   T   T   T
 11.2023770000000003  2.9564159999999999  5.4168610000000017   T   T   T
  6.5987129999999992  5.0712419999999998  5.4168610000000017   T   T   T
  3.6854209999999994 10.1172120000000003  5.4168610000000017   T   T   T
  7.8177149999999989  4.3640239999999997  7.4012240000000000   T   T   T
  1.9911300000000001  4.3640239999999997  7.4012240000000000   T   T   T
 10.7310070000000000  9.4099950000000003  7.4012240000000000   T   T   T
  4.9044220000000003  9.4099950000000003  7.4012240000000000   T   T   T
  9.2947319999999998  1.6237960000000000 15.2356800000000003   T   T   T
  1.9909349999999999  7.7290169999999998  0.8160649999999999   F   F   F
 10.7308129999999977  2.6830460000000005  0.8160649999999999   F   F   F
  4.9042279999999998  2.6830460000000005  0.8160649999999999   F   F   F
  6.5977509999999988  8.4342629999999996  2.8003459999999998   F   F   F
  0.7711660000000000  8.4342629999999996  2.8003459999999998   F   F   F
  9.5110430000000008  3.3882919999999999  2.8003459999999998   F   F   F
  3.6844579999999993  3.3882919999999999  2.8003459999999998   F   F   F
  2.4624999999999999  8.0023859999999996  5.4168610000000017   T   T   T
  8.2890850000000000  8.0023859999999996  5.4168610000000017   T   T   T
  5.3757929999999998  2.9564159999999999  5.4168610000000017   T   T   T
  3.6834849999999997  7.2986420000000001  7.4012240000000000   T   T   T
  0.7721289999999998  5.0712419999999998  5.4168610000000017   T   T   T
  8.2903979999999997  1.2740720000000001  2.8003459999999998   F   F   F
 11.2036899999999999  6.3200430000000001  2.8003459999999998   F   F   F
  9.8302200000000006  3.6208160000000000 12.2626600000000003   T   T   T
 11.7074370000000005  4.4621320000000004 10.5364789999999999   T   T   T
 10.7760780000000000  5.9234629999999999 12.3247080000000011   T   T   T
  3.0148559999999995  9.2096570000000000 14.3208760000000002   T   T   T
  3.8635320000000002  6.7099130000000002 13.8284470000000006   T   T   T
  6.0290249999999999  7.6911019999999999 12.5797039999999996   T   T   T
  5.1803489999999996 10.1908449999999977 13.0721319999999999   T   T   T
  5.3271540000000002  8.4489110000000007 14.8454890000000006   T   T   T
  3.2915350000000001  0.4334910000000000 16.5808909999999976   T   T   T
  2.4777239999999998  2.9904310000000001 16.6868299999999969   T   T   T
  5.0049279999999996  3.7758949999999998 17.1426109999999987   T   T   T
  5.8187400000000000  1.2189540000000001 17.0366719999999994   T   T   T
  4.3899699999999999  2.2473529999999999 15.2755100000000024   T   T   T
 10.7857129999999994  0.1445660000000000 16.5734129999999986   T   T   T
  8.1073489999999993  0.0043090000000000 16.7081129999999973   T   T   T
  7.9871480000000004  2.6605790000000002 17.0839179999999971   T   T   T
 10.6655130000000007  2.8008370000000005 16.9492179999999983   T   T   T
  8.3611109999999993  5.8045590000000002 11.7293320000000012   T   T   T
  5.3771050000000002  6.3200430000000001  2.8003459999999998   F   F   F
 10.2383279999999992  6.6458750000000002 10.0031520000000000   T   T   T
  5.0332850000000002  6.1795140000000002 16.1100779999999979   T   T   T
  3.6844579999999993  0.5703440000000000  0.8160649999999999   F   F   F
  9.5110430000000008  0.5703440000000000  0.8160649999999999   F   F   F
  0.7711660000000000  5.6163140000000000  0.8160649999999999   F   F   F
  6.5977509999999988  5.6163140000000000  0.8160649999999999   F   F   F
  8.1458119999999994  2.7760419999999999 10.4715170000000004   T   T   T
  9.2023419999999998  0.3077580000000000 10.5241430000000022   T   T   T
  8.3126829999999998 -0.0194850000000000 13.0366859999999996   T   T   T
  7.2561529999999994  2.4487999999999999 12.9840600000000013   T   T   T
  6.8477730000000001  0.7748440000000000 11.1863460000000021   T   T   T
 -0.0139650000000000  0.3580330000000000 13.6265150000000013   T   T   T
  2.2509709999999998  0.7426410000000000 12.2359780000000011   T   T   T
  2.2340360000000001  3.3377870000000001 12.9261819999999990   T   T   T
 -0.0309000000000000  2.9531800000000001 14.3167200000000001   T   T   T
  1.9754290000000001  1.5039689999999997 14.5907879999999999   T   T   T
  7.4047039999999988  6.9834339999999999 17.0804069999999975   T   T   T
  8.6102329999999991  4.9340989999999998 15.8320559999999997   T   T   T
  6.2388139999999996  4.1301790000000000 14.8617260000000009   T   T   T
  7.0417779999999990  6.4793890000000003 14.6689970000000010   T   T   T
  9.5120050000000003 10.1172120000000003  5.4168610000000017   T   T   T
  1.6127180000000001  0.7827480000000000  4.7083020000000007   T   T   T
  0.7711660000000000  0.2968220000000000  6.0756549999999994   T   T   T
  6.5977509999999988  0.2968220000000000  6.0756549999999994   T   T   T
  3.6838090000000001  0.9934269999999999  7.9216670000000002   T   T   T
  9.5110430000000008  5.3427920000000011  1.3692119999999997   F   F   F
  3.6844579999999993  5.3427920000000011  1.3692119999999997   F   F   F
  6.5977509999999988  0.2968220000000000  1.3692119999999997   F   F   F
  0.7711660000000000  0.2968220000000000  1.3692119999999997   F   F   F
  8.6701080000000008  4.8572780000000000  0.0000000000000000   F   F   F
  2.8435229999999998  4.8572780000000000  0.0000000000000000   F   F   F
 11.5833999999999993  9.9032490000000006  0.0000000000000000   F   F   F
  5.7568149999999996  9.9032490000000006  0.0000000000000000   F   F   F
  6.5977509999999988  4.6281119999999998  3.3038509999999999   F   F   F
  9.5110430000000008  1.9788120000000000  6.5902830000000003   T   T   T
  0.7711660000000000  7.0247830000000011  6.5902830000000003   T   T   T
  3.6844579999999993  5.3427920000000011  6.0756549999999994   T   T   T
  6.5971019999999987  6.0393980000000003  7.9216660000000001   T   T   T
  2.8314140000000001  2.4720659999999999  7.9216660000000001   T   T   T
  7.4393029999999998  0.7827480000000000  4.7083020000000007   T   T   T
  4.5260109999999996  5.8287180000000003  4.7083020000000007   T   T   T
 10.3525960000000001  5.8287190000000004  4.7083020000000007   T   T   T
  0.7711660000000000  4.6281119999999998  3.3038509999999999   F   F   F
  9.5110430000000008  9.6740829999999995  3.3038509999999999   F   F   F
  8.6694420000000001  5.8286350000000002  4.7083020000000007   T   T   T
  6.5977509999999988  3.6608019999999999  1.9334300000000000   F   F   F
  0.7711660000000000  3.6608019999999999  1.9334300000000000   F   F   F
  1.6121010000000000  9.9032490000000006  0.0000000000000000   F   F   F
  9.5110430000000008  8.7067730000000001  1.9334300000000000   F   F   F
  3.6844579999999993  8.7067730000000001  1.9334300000000000   F   F   F
 10.3519780000000008  4.8572780000000000  0.0000000000000000   F   F   F
  6.5977509999999988  7.0247830000000011  6.5902830000000003   T   T   T
  4.5253930000000002  4.8572780000000000  0.0000000000000000   F   F   F
  9.5110430000000008  5.3427920000000011  6.0756549999999994   T   T   T
  2.8467430000000000  8.2231179999999995  3.3038509999999999   F   F   F
  8.6733279999999997  8.2231179999999995  3.3038509999999999   F   F   F
  5.7600360000000004  3.1771470000000002  3.3038509999999999   F   F   F
 11.5866209999999992  3.1771470000000002  3.3038509999999999   F   F   F
  4.5381510000000000  2.4709420000000000  7.9216660000000001   T   T   T
  9.5103939999999998  0.9934280000000000  7.9216670000000002   T   T   T
 10.3647360000000006  2.4709430000000001  7.9216670000000002   T   T   T
  1.6248579999999999  7.5169130000000006  7.9216660000000001   T   T   T
  7.4514429999999994  7.5169130000000006  7.9216660000000001   T   T   T
  3.6844579999999993  9.6740829999999995  3.3038509999999999   F   F   F
  8.6579999999999995  2.4720659999999999  7.9216660000000001   T   T   T
  0.7705170000000000  6.0393980000000003  7.9216660000000001   T   T   T
  5.7447070000000000  7.5180369999999996  7.9216660000000001   T   T   T
 11.5712919999999997  7.5180369999999996  7.9216670000000002   T   T   T
  9.5110910000000004  4.3710240000000002  4.7083020000000007   T   T   T
  3.6844579999999993  1.9788120000000000  6.5902830000000003   T   T   T
  1.6088800000000001  3.1771470000000002  3.3038509999999999   F   F   F
 10.3487580000000001  8.2231179999999995  3.3038509999999999   F   F   F
  4.5221730000000004  8.2231179999999995  3.3038509999999999   F   F   F
  6.5977989999999993  9.4169940000000008  4.7083020000000007   T   T   T
  0.7712139999999998  9.4169940000000008  4.7083020000000007   T   T   T
  3.6845059999999998  4.3710230000000001  4.7083020000000007   T   T   T
  3.6844579999999993  6.3138210000000008  0.0000000000000000   F   F   F
  9.5110430000000008  6.3138210000000008  0.0000000000000000   F   F   F
  0.7711660000000000  1.2678499999999999  0.0000000000000000   F   F   F
  6.5977509999999988  1.2678499999999999  0.0000000000000000   F   F   F
  5.7561499999999999  0.7826650000000001  4.7083020000000007   T   T   T
 11.5827349999999996  0.7826650000000001  4.7083020000000007   T   T   T
  2.8428580000000001  5.8286350000000002  4.7083020000000007   T   T   T
  7.4354649999999989  3.1771470000000002  3.3038509999999999   F   F   F
  7.4386859999999997  9.9032490000000006  0.0000000000000000   F   F   F
  9.3998840000000001  1.3701170000000000 17.0623719999999999   T   T   T
  8.4319229999999994  1.4668079999999999 11.8373970000000011   T   T   T
  9.9254440000000006  5.0174279999999998 10.9580570000000002   T   T   T
  4.4038079999999997  8.4505949999999999 13.2456010000000006   T   T   T
  4.1127659999999997  2.0837629999999998 17.0944679999999991   T   T   T
  0.9830740000000000  1.8983699999999999 13.0835080000000001   T   T   T
  6.7894800000000002  5.4214549999999999 16.1620929999999987   T   T   T
  6.5977509999999988  3.6608019999999999  2.9597560000000001   F   F   F
  6.5977509999999988  0.2968220000000000  0.3425450000000000   F   F   F
  3.6844589999999995  1.9788120000000000  7.6208780000000003   T   T   T
  9.5110419999999998  1.9788120000000000  7.6208780000000003   T   T   T
  0.7711660000000000  7.0247820000000001  7.6208780000000003   T   T   T
  0.7711660000000000  3.6608019999999999  2.9597560000000001   F   F   F
  6.5977509999999988  7.0247820000000001  7.6208780000000003   T   T   T
  0.7711670000000000  0.2968210000000000  5.0474070000000006   T   T   T
  0.7711660000000000  0.2968220000000000  0.3425450000000000   F   F   F
  3.6844579999999993  8.7067730000000001  2.9597560000000001   F   F   F
  9.5110430000000008  5.3427920000000011  0.3425450000000000   F   F   F
  3.6844579999999993  5.3427920000000011  0.3425450000000000   F   F   F
  6.5977509999999988  0.2968220000000000  5.0474080000000008   T   T   T
  9.5110430000000008  8.7067730000000001  2.9597560000000001   F   F   F
  9.5110430000000008  5.3427920000000011  5.0474080000000008   T   T   T
  3.6844579999999993  5.3427930000000012  5.0474080000000008   T   T   T
  9.5110430000000008  1.9788120000000000  1.8016859999999999   F   F   F
  6.5977499999999996  3.6608019999999999  6.4203420000000007   T   T   T
  0.7711660000000000  3.6608019999999999  6.4203420000000007   T   T   T
  3.6844579999999993  8.7067730000000001  6.4203420000000007   T   T   T
  6.5977509999999988  7.0247830000000011  1.8016859999999999   F   F   F
  0.7711660000000000  7.0247830000000011  1.8016859999999999   F   F   F
  3.6844579999999993  1.9788120000000000  1.8016859999999999   F   F   F
  9.5110430000000008  8.7067730000000001  6.4203420000000007   T   T   T
