H  N  F  Si I 
 1.0000000000000000
    11.6531699554687993    0.0000000000000000    0.0000000000000000
     0.0000000000000000   10.0919412160536002    0.0000000000000000
     0.0000000000000000    0.0000000000000000   37.9798949999999991
 H   N   F   Si  I  
  83  16 102   8   7
Selective dynamics
Cartesian
  6.5977509999999988  4.6281119999999998  3.3038510000000008   F   F   F
  9.9705726201340088  6.6289678622678689 10.4794029174009626   T   T   T
  8.6733279999999997  8.2231179999999995  3.3038510000000008   F   F   F
 10.1678703147292371 10.0726491739181068 17.8792795256661847   T   T   T
  3.6844579999999993  9.6740829999999995  3.3038510000000008   F   F   F
 10.9365898424479369  7.1794072588141278 19.5808726759584495   T   T   T
  7.6504337011929673  6.9839626443043956  8.2055482770227695   T   T   T
  7.1556495455824463  7.3467100449492913 20.4174237728048489   T   T   T
  1.5623581111597951  7.1543918369094017  8.4767067237088192   T   T   T
  6.2139204385010904  5.4826892669783529 14.1037403619177582   T   T   T
  9.7113198232640450  1.8162817410509635  9.5695956201963757   T   T   T
  5.1777505041136784  0.1073066013066769 15.2894271219943043   T   T   T
  5.7600360000000004  3.1771470000000002  3.3038510000000008   F   F   F
  2.9401774979864039 10.7187168790743943 18.9364709742491328   T   T   T
 11.8915378743496714  7.9424928984816514  7.7904254649449092   T   T   T
  5.8451508060139599  8.9999188489432136 20.1977753174311623   T   T   T
  6.0369792956822570  7.5104085398234925  8.2881235042226162   T   T   T
 11.2909521957486891  9.1012033645354169 18.9517794843520484   T   T   T
  9.1106365443476935  2.6475350149983559  8.2252049246583727   T   T   T
 11.4421559942726621 -0.7871314337292021 10.2854398988936246   T   T   T
  3.6844579999999993  6.3138210000000008  0.0000000000000000   F   F   F
  9.5110430000000008  6.3138210000000008  0.0000000000000000   F   F   F
  2.8435229999999998  4.8572780000000000  0.0000000000000000   F   F   F
  5.7144942813335611 10.4391170883130187 21.6638111268751778   T   T   T
  4.5163209160778992  1.0012863006156771  8.1747085583753840   T   T   T
 10.0165877096650551  6.2074722630370829  5.2776505012498678   T   T   T
  6.3713024715487618  5.8507129105402038  8.2320467930709107   T   T   T
 10.3519780000000008  4.8572780000000000  0.0000000000000000   F   F   F
  4.5253930000000002  4.8572780000000000  0.0000000000000000   F   F   F
  7.4386859999999997  9.9032490000000006  0.0000000000000000   F   F   F
  1.6121010000000000  9.9032490000000006  0.0000000000000000   F   F   F
  3.6844579999999993  8.7067730000000001  1.9334300000000002   F   F   F
  0.3870923048633960  6.2562158722059475  7.6378348483950802   T   T   T
  3.6496657815514522  2.4603342239777208  8.1188892567453088   T   T   T
  9.1912306738467162  0.9517832129418152  8.2242815514560554   T   T   T
  6.7433618458935491  6.7223987868981183  9.6148774152787588   T   T   T
  0.7711660000000000  4.6281119999999998  3.3038510000000008   F   F   F
  9.5110430000000008  9.6740829999999995  3.3038510000000008   F   F   F
  8.5377770353915885  5.3692853043549933  5.4190431220450357   T   T   T
  6.5977509999999988  3.6608019999999999  1.9334300000000002   F   F   F
  0.7711660000000000  3.6608019999999999  1.9334300000000002   F   F   F
  4.8835792318612814  2.2554202840093636  9.2309762076955941   T   T   T
  4.3449519378804276  2.8720933094931023 12.4430467817386674   T   T   T
 11.5866209999999992  3.1771470000000002  3.3038510000000008   F   F   F
  4.6356146611065174  1.9676498760502206 18.2778964202742991   T   T   T
 11.5833999999999993  9.9032490000000006  0.0000000000000000   F   F   F
  4.5221730000000004  8.2231179999999995  3.3038510000000008   F   F   F
  0.7711660000000000  1.2678499999999999  0.0000000000000000   F   F   F
  8.6701080000000008  4.8572780000000000  0.0000000000000000   F   F   F
 -1.9806033067371787  8.5392194910942507 10.7067312562866110   T   T   T
  0.7711660000000000  0.2968220000000000  1.3692119999999999   F   F   F
  6.5977509999999988  0.2968220000000000  1.3692119999999999   F   F   F
  3.6844579999999993  5.3427920000000011  1.3692119999999999   F   F   F
  9.5110430000000008  5.3427920000000011  1.3692119999999999   F   F   F
  7.4354649999999989  3.1771470000000002  3.3038510000000008   F   F   F
  5.7568149999999996  9.9032490000000006  0.0000000000000000   F   F   F
  6.2682395056282845 10.3308064724868220 12.5410252255954138   T   T   T
  4.3099055219619409  5.7930153752753668  4.5130673507299228   T   T   T
  1.7419785894208177  0.1000506191926746 10.3212791236728876   T   T   T
  7.1614853869046549  0.7848706188451662  4.4436466000061055   T   T   T
  8.1212213986510129 -0.0898615056129783 13.4301552438261673   T   T   T
  3.4279369415293326  1.3903080384718960  9.4192310278357230   T   T   T
  4.2354824981041297  5.1592663261777005 16.7141491139553402   T   T   T
  9.5110430000000008  8.7067730000000001  1.9334300000000002   F   F   F
  9.5614421782232064  5.0406154141664352  4.1308969911811122   T   T   T
 10.6289094173389103  1.8708996482551183  8.1570893070265029   T   T   T
  9.2043112525898199  6.7272899859116739 20.5456630256489987   T   T   T
  2.8467430000000000  8.2231179999999995  3.3038510000000008   F   F   F
  2.8992198099430930  5.1936366140711936  5.2617219208494070   T   T   T
 11.4828821843326683  0.3011658751532717  5.4592833196744390   T   T   T
  5.6232034630065417  0.3367712129306100  5.0252508958360949   T   T   T
  1.4476701306263402  7.2845367895750179  6.8184362815161403   T   T   T
  1.2925363208031762  1.1287700828419616  5.1420720590133842   T   T   T
 10.3487580000000001  8.2231179999999995  3.3038510000000008   F   F   F
  6.9645746862065732  9.4293699287027906  5.2809774994010938   T   T   T
  6.5977509999999988  1.2678499999999999  0.0000000000000000   F   F   F
  1.0206629292996412  9.6515714742176133  4.5371929710843819   T   T   T
  4.4009213662870259  4.4038196931102584  5.4709499768393268   T   T   T
  1.6088800000000001  3.1771470000000002  3.3038510000000008   F   F   F
  1.3034634841541393 -0.1619338806877460  6.1714436579053356   T   T   T
  6.8216392192628517  0.8126027087083350  6.0870137924766619   T   T   T
  4.1002967178563337  5.9247640251840092  6.1623606974660552   T   T   T
  9.9979193889819289  4.5434110496799214  5.6482010539489389   T   T   T
  9.5110430000000008  5.3427920000000011  0.3425450000000000   F   F   F
  3.6844579999999993  8.7067730000000001  2.9597560000000001   F   F   F
  0.7711660000000000  0.2968220000000000  0.3425450000000000   F   F   F
  0.8537162049116024  0.2058615704973343  5.3171350240398763   T   T   T
  6.6988539827507205  6.7775817155600233  8.5890624205480144   T   T   T
  0.7711660000000000  3.6608019999999999  2.9597560000000001   F   F   F
  6.5977509999999988  3.6608019999999999  2.9597560000000001   F   F   F
  4.1222706863001921  1.7794136877271545  8.7336023221924961   T   T   T
  9.6637073643738809  1.8210866293460739  8.5456715178303373   T   T   T
  6.5977509999999988  0.2968220000000000  0.3425450000000000   F   F   F
  9.5110430000000008  8.7067730000000001  2.9597560000000001   F   F   F
  9.5329776128847090  5.3003661297630247  5.1219872150572350   T   T   T
  3.9246674204990999  5.3227906801794171  5.3412629998403576   T   T   T
  6.6409957694148103  0.3167034515717818  5.1955601563189102   T   T   T
  0.9043764396050344  7.1486959138732660  7.6889328612224128   T   T   T
  3.6844579999999993  5.3427920000000011  0.3425450000000000   F   F   F
  2.3268036731331581 10.0059268171642888 19.1723804642238775   T   T   T
  5.3779810000000001  7.7290169999999998  0.8160649999999999   F   F   F
 11.2045659999999998  7.7290169999999998  0.8160649999999999   F   F   F
  6.7634073720424590  2.0372968384851755  7.3950566756536045   T   T   T
  0.6189867845537045  2.1373554564659245  7.5699216100188398   T   T   T
  7.0739338077149707 10.8602452890742587 12.7865327327106613   T   T   T
  8.9603295146928090  4.2259098765894265 10.5394511252548995   T   T   T
  4.3510649418668779  8.8204834761848279 17.5853876681663763   T   T   T
  2.4472179564517780  1.0762957907539725 13.9724465101810207   T   T   T
  3.5472967970463167  3.3004573950289098 13.8243675123383305   T   T   T
  0.9868929439724586  3.0374524441957709 14.5975428893288317   T   T   T
  5.0344742995038745  7.9914605156822658  5.5105308595004958   T   T   T
  4.9051039999999997  1.2740720000000001  2.8003459999999998   F   F   F
  5.5117121311367363  9.9271418801611730 20.3135615083186423   T   T   T
  8.2912739999999978  2.6830460000000005  0.8160649999999999   F   F   F
  8.3536821180719478  6.9129889579054806 21.0439295289901303   T   T   T
 10.6318844846665623 10.2428041682420119 18.7521096090860198   T   T   T
  5.8558117603961586 10.7812251008046545 22.5672528150945126   T   T   T
  4.4055844570524245  4.2138147240003025 16.7996091340052800   T   T   T
  8.7815026399891405 -0.6816496161605885 13.8352117637513050   T   T   T
  2.3794727986717055  0.8131138340044015 10.5270054325794771   T   T   T
  3.6687209303415571  1.8996387209116135 18.4227381166668351   T   T   T
  4.9480375575626647  2.6310122615451479 11.7426111120761387   T   T   T
  5.6753112353428588 -0.6658629946271031 14.9872724911898665   T   T   T
 -0.5313622581159937  5.9751543833581406 10.0522265288881787   T   T   T
  6.2643984279756877  7.6189509154755015 20.0652710881443852   T   T   T
 10.4448831053647400  6.4205676246545513 20.0237703417397483   T   T   T
 12.3828174554955783 -0.9562950677201245 10.0137968382178038   T   T   T
  4.3015341301566057  1.3437088819259502 15.6452370846764079   T   T   T
  2.2101997459952134  6.2267354016024647 10.1195997843550565   T   T   T
  6.5977509999999988  5.6163140000000000  0.8160649999999999   F   F   F
  2.4646889999999999  2.6830460000000005  0.8160649999999999   F   F   F
  0.7711660000000000  5.6163140000000000  0.8160649999999999   F   F   F
 11.2036899999999999  6.3200430000000001  2.8003459999999998   F   F   F
  5.3771050000000002  6.3200430000000001  2.8003459999999998   F   F   F
  8.2903979999999997  1.2740720000000001  2.8003459999999998   F   F   F
  2.4638130000000000  1.2740720000000001  2.8003459999999998   F   F   F
 11.5485020407173398  4.4634761353462276  7.6531350092253714   T   T   T
  5.8123133144047561  4.2619245166497448  7.7950325685559090   T   T   T
  8.3920838238200854  9.5799075891361358  7.5578506605402200   T   T   T
  0.0512242702409813  3.0784299548125591 10.7614383653504806   T   T   T
  1.6123411892839801  1.1173847880306618 16.3206289168458731   T   T   T
  6.3147420278325503  4.5374696449827079 14.2896520790652755   T   T   T
  0.8822647728408929  5.1338638494020907 12.0467348058734984   T   T   T
  9.2345705051866673  7.2907052553594154  7.5686630470547662   T   T   T
  3.8887435552088347  7.2583791952229255  7.4977239705994068   T   T   T
 11.2451100174172733  3.1547067788807301  5.6336570166129958   T   T   T
  5.4501432302556925  3.1190996230387089  5.6725899638875319   T   T   T
  8.2020750104346121  8.1636905106383466  5.5633544742121428   T   T   T
  2.5986935972851830  7.9658149490121977  5.5627316230068278   T   T   T
  3.6844579999999993  3.3882919999999999  2.8003459999999998   F   F   F
  9.5110430000000008  3.3882919999999999  2.8003459999999998   F   F   F
 10.7316889999999994  1.2740720000000001  2.8003459999999998   F   F   F
  1.9918110000000000  6.3200430000000001  2.8003459999999998   F   F   F
  7.8183959999999999  6.3200430000000001  2.8003459999999998   F   F   F
  5.0708149562572347  9.3813769985490332  7.5424690417445870   T   T   T
  3.4892993166685136  6.2403914649104273 13.5332544842356164   T   T   T
  3.8615737026600860 10.0779655286520402  5.5173651448020236   T   T   T
  9.7319827187004755 10.0483944827115792  5.5772363954805622   T   T   T
  1.2178297715192350  4.9551630098039334  5.6874484308917239   T   T   T
  6.8958865608654332  5.0843566924167511  5.8028708581664992   T   T   T
  1.9909349999999999  7.7290169999999998  0.8160649999999999   F   F   F
 -1.5767695194172955  9.4616291785157447 10.6724825792762488   T   T   T
  4.9042279999999998  2.6830460000000005  0.8160649999999999   F   F   F
  9.2536215928860113  2.3981525698161406 12.1928336635773285   T   T   T
  8.2211946591701803  3.9859329556803482  7.5323893266438553   T   T   T
  7.8175200000000000  7.7290169999999998  0.8160649999999999   F   F   F
  2.7478629445444902  8.4844784243824716 15.4280698392374767   T   T   T
 10.7794832427651421  9.1841967433762228  7.5770725571265203   T   T   T
  2.2630184517318481  3.9227341710697985  7.6559886372344188   T   T   T
 10.7308129999999977  2.6830460000000005  0.8160649999999999   F   F   F
  2.6469578957455826  3.7276137656045365 10.8361622863068217   T   T   T
  9.5110430000000008  0.5703440000000000  0.8160649999999999   F   F   F
  2.6369836557654551  9.3954297757936001  7.4856812427475816   T   T   T
  3.6844579999999993  0.5703440000000000  0.8160649999999999   F   F   F
  0.7711660000000000  8.4342629999999996  2.8003459999999998   F   F   F
 10.5986447780068822  7.7798614989424868  5.6144384696221898   T   T   T
  1.9752714853395639  2.6691265850475840  5.5867055333330979   T   T   T
  7.8495219199201349  2.9030923630933061  5.3989730871119681   T   T   T
  8.8892642176907533  7.6720884197958217 17.9376241983539337   T   T   T
 11.7298230991353769  8.1806887981376661 19.0528177856628709   T   T   T
  1.5016435433517998  6.4925464491374294 16.7445810370183530   T   T   T
  3.0559866149750201  6.8452485206421683 18.8685815055031263   T   T   T
  8.7103356453325951  4.8972562313449606 12.8772388954473023   T   T   T
  7.3348080826791664  2.4289438007211155 10.3537851634131837   T   T   T
  6.5977509999999988  8.4342629999999996  2.8003459999999998   F   F   F
  6.6807581796480493  4.9960591494228730 11.0943102452510374   T   T   T
  9.2043334447541820  7.2397957020894701 10.7000226773477785   T   T   T
  6.0457107720785190  6.9785022337314357 13.6730516252174201   T   T   T
  5.1886846590560820  9.5012241082608337 12.1281076555820508   T   T   T
  2.6902714092875541  8.4111529812805959 12.3124032810546478   T   T   T
  9.6801716833527021  9.6869110578936546 16.6505818586106855   T   T   T
  9.4359208762870583  7.1568370369453440 15.5993129662094656   T   T   T
  6.9553842249110769  6.8992331132005358 16.5480837427845557   T   T   T
  3.9555986064488255  6.6424324724678963 16.5457289835735963   T   T   T
  4.7131197981477557  7.1065984736605374 11.5001406399704678   T   T   T
  8.7827344836830683  4.0606377766664465 16.0144171109770461   T   T   T
  7.5641877638121127  4.4282880695038447 18.3823938822601995   T   T   T
  6.1110916537618092  2.1686668717185116 18.0607756724350743   T   T   T
  7.3295621909613313  1.8423171467318458 15.5930409270521313   T   T   T
  8.5593567946822926  2.2516168538448516 17.7058922272119901   T   T   T
  7.1549417089215668  9.3771119107645617 17.6315391634888528   T   T   T
  6.8421371235370723  3.5520425683977157  6.6118802298316854   T   T   T
  0.9328146237044193  3.5326918521224817  6.6295377842634613   T   T   T
  3.8669656298446813  8.6883102832175716  6.5333726202382918   T   T   T
  6.5977509999999988  7.0247830000000011  1.8016859999999999   F   F   F
  0.7711660000000000  7.0247830000000011  1.8016859999999999   F   F   F
  9.5110430000000008  1.9788120000000000  1.8016859999999999   F   F   F
  3.6844579999999993  1.9788120000000000  1.8016859999999999   F   F   F
  9.4680570707005582  8.6784008383690310  6.5908497133293720   T   T   T
  2.6251626441360463  2.3702755215016449 15.2845615531789107   T   T   T
  2.7083826977017980  7.8749070668968733 17.3115144142637902   T   T   T
  4.3280251744926250  7.9015833345192767 13.1383100184923602   T   T   T
  7.2722092478811016  3.2955708295148476 16.8699949155811701   T   T   T
  1.0795041102738441  4.6503495579035823 10.2721174162438125   T   T   T
  7.7874183205615157  3.5804311298161204 11.8469800726865060   T   T   T
  8.1755712511911671  8.3628677300118301 16.3578348558191955   T   T   T
