F  H  I  N  Si
 1.0000000000000000
    11.6531699554687993    0.0000000000000000    0.0000000000000000
     0.0000000000000000   10.0919412160536002    0.0000000000000000
     0.0000000000000000    0.0000000000000000   37.1426110000000023
 F   H   I   N   Si 
  83  64   7  16   8
Selective dynamics
Cartesian
  7.8175200000000000  7.7290169999999998  0.8160649999999999   F   F   F
  6.6837503728453722  2.4010674568335602  7.4360339395646635   T   T   T
 11.2045659999999998  7.7290169999999998  0.8160649999999999   F   F   F
  5.3779810000000001  7.7290169999999998  0.8160649999999999   F   F   F
  8.2912739999999978  2.6830460000000005  0.8160649999999999   F   F   F
  2.4646889999999999  2.6830460000000005  0.8160649999999999   F   F   F
  7.8183959999999999  6.3200430000000001  2.8003459999999998   F   F   F
  1.9918110000000000  6.3200430000000001  2.8003459999999998   F   F   F
 10.7316889999999994  1.2740720000000001  2.8003459999999998   F   F   F
  4.9051039999999997  1.2740720000000001  2.8003459999999998   F   F   F
  5.2280933997410077  8.5014078849464134  5.4943619667953731   T   T   T
 10.8135598414566392  8.0526597882365643  5.3642831056956162   T   T   T
  2.0407863494690415  3.2854773929280414  5.6480114976150340   T   T   T
  7.9106350695584187  3.1525528064728605  5.5502895445780638   T   T   T
  2.5829508339263243  9.6698946269471264  7.3053020277954905   T   T   T
  8.4734866280173655  9.1857964219672059  7.5585930354822217   T   T   T
  5.4787232428930075  4.6374537624805834  7.5302608291710609   T   T   T
 11.0326324703238221  4.3584345347034175  7.4940924880585982   T   T   T
  0.7797719472370199  2.2989189123257066  7.5175137213358836   T   T   T
  2.4638130000000000  1.2740720000000001  2.8003459999999998   F   F   F
  9.8261774716627421  7.1546312496065978  7.3935852963975552   T   T   T
 11.2635553366853429  2.9348574592041392  5.4992161032243576   T   T   T
  6.7092404676805186  5.3158281682372834  5.6193065473660573   T   T   T
  3.6784888353916845 10.4298706189211217  5.3265941785515079   T   T   T
  8.0369097491625769  4.5094344721082100  7.4542949987369482   T   T   T
  1.7713902445895953  4.4728268046296815  7.7116815828664285   T   T   T
 10.8664310217995439  9.3186507567979397  7.3852190580758172   T   T   T
  5.0181271517696784  9.9825850556612199  7.3232834813767997   T   T   T
 10.4354708067871957  1.3494366925995973 16.5496854089994301   T   T   T
  1.9909349999999999  7.7290169999999998  0.8160649999999999   F   F   F
 10.7308129999999977  2.6830460000000005  0.8160649999999999   F   F   F
  4.9042279999999998  2.6830460000000005  0.8160649999999999   F   F   F
  6.5977509999999988  8.4342629999999996  2.8003459999999998   F   F   F
  0.7711660000000000  8.4342629999999996  2.8003459999999998   F   F   F
  9.5110430000000008  3.3882919999999999  2.8003459999999998   F   F   F
  3.6844579999999993  3.3882919999999999  2.8003459999999998   F   F   F
  2.7763107074484679  8.1046444461456986  5.5437437705205221   T   T   T
  8.4160548409949723  7.8193661449397007  5.5141528605749475   T   T   T
  5.4638883911731186  3.1912561732400055  5.5291137237469608   T   T   T
  4.0702362629137374  7.6889312059694497  7.4358900208977552   T   T   T
  0.5994576831357059  5.2223492223573089  5.6316805222791055   T   T   T
  8.2903979999999997  1.2740720000000001  2.8003459999999998   F   F   F
 11.2036899999999999  6.3200430000000001  2.8003459999999998   F   F   F
  9.9763979164910239  3.6676860127829189 10.1074926564628473   T   T   T
 11.2832154661055188  6.2654195313455938  9.9959432385053191   T   T   T
  9.3541893544306856  5.4636468797832123 11.6655569497023421   T   T   T
  3.4725284806500585  6.2063859299215096 11.6641642589418026   T   T   T
  2.5550162349424510  7.4428763633798170  9.5079643970652032   T   T   T
  3.9256998635908684  9.7139335024977544 10.4518699940298649   T   T   T
  4.4655811177533691  8.3638855978667497 12.6837105376502404   T   T   T
  5.0146553349702732  7.5445044942052792 10.3234585421933662   T   T   T
  2.2194716837041848  0.7006353655823934 20.0870140546380505   T   T   T
  2.9692651940498900  3.2329376429686292 20.4948211113070009   T   T   T
  5.2285524993642314  2.7507612455915562 19.1207644955215805   T   T   T
  4.4162245697172118  0.2435894963351898 18.7465925233519606   T   T   T
  2.9723266107802062  2.2326113901028899 18.2871917493515106   T   T   T
  9.2137388559522932 -0.8119690584814110 16.3489319250185012   T   T   T
  8.1142975299305533  1.5743258518982484 15.7817392828823895   T   T   T
  8.9031395207351629  2.5758619217542109 18.0603759057395976   T   T   T
 10.0582819565871660  0.1847519408375204 18.7065574835701725   T   T   T
  7.5230012961148489  5.2300665317179957  9.9376349302522620   T   T   T
  5.3771050000000002  6.3200430000000001  2.8003459999999998   F   F   F
  8.9785255002251780  7.4322533929671151 10.1319126478926869   T   T   T
  7.3284705553791554  4.7057654337107353 16.2107566146843105   T   T   T
  3.6844579999999993  0.5703440000000000  0.8160649999999999   F   F   F
  9.5110430000000008  0.5703440000000000  0.8160649999999999   F   F   F
  0.7711660000000000  5.6163140000000000  0.8160649999999999   F   F   F
  6.5977509999999988  5.6163140000000000  0.8160649999999999   F   F   F
  7.0941297861368477  2.4606034493089028 10.3263113032442995   T   T   T
  8.6575781654478519  0.2933028562765639 10.3879332266760276   T   T   T
  8.0021035926438699  0.0520118218156830 13.1390250124334909   T   T   T
  6.4975836515009542  2.2780619757222400 12.8516450014601311   T   T   T
  6.3104713816367601  0.2843059291143624 11.3712015595631293   T   T   T
 -0.3369775459865859  2.1023931371535740 12.6233451873573230   T   T   T
  1.2298580938443757  0.8330231034229204 10.7643990208638289   T   T   T
  2.6109109269086970  3.2322749974947951 10.4192843947278355   T   T   T
  1.0321657519529681  4.2978878804752316 12.3980298890549072   T   T   T
  2.1214677679501266  2.0814034888757327 12.6575671724360124   T   T   T
  8.8514073689358401  6.5417020384671085 17.6278663782834606   T   T   T
 10.9954927364302861  5.8412771489231883 16.1083882689329236   T   T   T
  9.4723664225295732  4.0609604538953574 14.8361879136402859   T   T   T
  8.7733753875942568  6.4715677209961679 15.1674406156689496   T   T   T
  9.4309678686178309  9.9884125866166453  5.5315526496898455   T   T   T
  1.7623186366370749  0.2873341349042253  5.2559157586674559   T   T   T
  0.4208221772963809  0.9622740865527752  5.9551010695072462   T   T   T
  6.5279200494081868  1.0441426756734142  6.0035532561813021   T   T   T
  3.2305171464546323  1.5702324938391428  7.6818716088556078   T   T   T
  9.5110430000000008  5.3427920000000011  1.3692119999999997   F   F   F
  3.6844579999999993  5.3427920000000011  1.3692119999999997   F   F   F
  6.5977509999999988  0.2968220000000000  1.3692119999999997   F   F   F
  0.7711660000000000  0.2968220000000000  1.3692119999999997   F   F   F
  8.6701080000000008  4.8572780000000000  0.0000000000000000   F   F   F
  2.8435229999999998  4.8572780000000000  0.0000000000000000   F   F   F
 11.5833999999999993  9.9032490000000006  0.0000000000000000   F   F   F
  5.7568149999999996  9.9032490000000006  0.0000000000000000   F   F   F
  6.5977509999999988  4.6281119999999998  3.3038509999999999   F   F   F
  9.0108743324444536  2.2996526591665734  6.9769145081388997   T   T   T
  0.6893347988415965  6.5699346306544202  6.8244102057456049   T   T   T
  4.3292619765497058  5.4019765403550064  6.1233397202841413   T   T   T
  6.8594393132257077  6.6254884345242608  8.6684261681215720   T   T   T
  3.4765977961171797  1.7006990480863986  9.2672823341650545   T   T   T
  7.6009095128779132  0.7014843360906621  4.7626855608680403   T   T   T
  4.2851888734581873  5.5765725230805314  4.4660136005486590   T   T   T
 10.5512485311524262  5.6840756222329354  4.9589908601388961   T   T   T
  0.7711660000000000  4.6281119999999998  3.3038509999999999   F   F   F
  9.5110430000000008  9.6740829999999995  3.3038509999999999   F   F   F
  8.9643910255246659  6.1679376676082560  4.9091732156442367   T   T   T
  6.5977509999999988  3.6608019999999999  1.9334300000000000   F   F   F
  0.7711660000000000  3.6608019999999999  1.9334300000000000   F   F   F
  1.6121010000000000  9.9032490000000006  0.0000000000000000   F   F   F
  9.5110430000000008  8.7067730000000001  1.9334300000000000   F   F   F
  3.6844579999999993  8.7067730000000001  1.9334300000000000   F   F   F
 10.3519780000000008  4.8572780000000000  0.0000000000000000   F   F   F
  6.9989249723985596  6.8079909428205356  7.0086109796206886   T   T   T
  4.5253930000000002  4.8572780000000000  0.0000000000000000   F   F   F
  9.3464439221582083  4.9006565222669121  5.9475193665764179   T   T   T
  2.8467430000000000  8.2231179999999995  3.3038509999999999   F   F   F
  8.6733279999999997  8.2231179999999995  3.3038509999999999   F   F   F
  5.7600360000000004  3.1771470000000002  3.3038509999999999   F   F   F
 11.5866209999999992  3.1771470000000002  3.3038509999999999   F   F   F
  4.6629188700042468  2.2855838278122418  8.1914990056435197   T   T   T
  9.1197500539267082  0.8753747591281668  7.8580181403468927   T   T   T
 10.2949466949256045  2.0845905282577371  8.0620273194076368   T   T   T
  1.9889706296619198  7.3715595036731321  7.5149644232021711   T   T   T
  7.1973340785957127  8.1168916927603636  7.9979990752296066   T   T   T
  3.6844579999999993  9.6740829999999995  3.3038509999999999   F   F   F
  8.7817989016144971  2.3483330501075446  8.6650115815954756   T   T   T
  0.7872533562262671  6.7799267456913910  8.4888593574280353   T   T   T
  5.6340904279020352  7.4023206967457824  7.8097200674689162   T   T   T
 12.1641741297154002  8.1042874927797435  7.5080428710806082   T   T   T
  9.4368135514041391  4.6765345338072395  4.2886338651645284   T   T   T
  3.1434163233765582  3.0744946095872985  8.4210125403752158   T   T   T
  1.6088800000000001  3.1771470000000002  3.3038509999999999   F   F   F
 10.3487580000000001  8.2231179999999995  3.3038509999999999   F   F   F
  4.5221730000000004  8.2231179999999995  3.3038509999999999   F   F   F
  6.3408587455136916  9.6812558478663924  5.1802906512363078   T   T   T
  0.2638377982172930  9.5265555644161424  5.2843031312298594   T   T   T
  3.0815769910112047  4.6101904737682933  5.2615407843162600   T   T   T
  3.6844579999999993  6.3138210000000008  0.0000000000000000   F   F   F
  9.5110430000000008  6.3138210000000008  0.0000000000000000   F   F   F
  0.7711660000000000  1.2678499999999999  0.0000000000000000   F   F   F
  6.5977509999999988  1.2678499999999999  0.0000000000000000   F   F   F
  5.9515512118526948  1.0411507105941047  4.4562756602803493   T   T   T
 12.1174217391572370  0.8034318584147923  4.3025194443898336   T   T   T
  3.1515383161216493  6.3362990115214437  5.4170092844576789   T   T   T
  7.4354649999999989  3.1771470000000002  3.3038509999999999   F   F   F
  7.4386859999999997  9.9032490000000006  0.0000000000000000   F   F   F
  8.8661956070375769  0.7639278881505690 17.3348072245725255   T   T   T
  7.7615937824894159  1.3620676930069777 11.7763870790785568   T   T   T
  9.4395273844094891  5.6289646786673995  9.7927464171477236   T   T   T
  3.3935549941466290  8.0137160289105562 11.1602558833409518   T   T   T
  3.8250684943983915  1.6784834672997446 19.8510920902415045   T   T   T
  0.9555337070369055  2.7011380053122074 11.3546133912878240   T   T   T
  9.2037200134279349  5.1645594444025793 16.3766585591374181   T   T   T
  6.5977509999999988  3.6608019999999999  2.9597560000000001   F   F   F
  6.5977509999999988  0.2968220000000000  0.3425450000000000   F   F   F
  3.6567762487428599  2.1798487348113165  8.3861849349783828   T   T   T
  9.2913213299998443  1.8817160298083455  7.8971855274139884   T   T   T
  0.9913804728252047  7.1875615252960294  7.5736964345359565   T   T   T
  0.7711660000000000  3.6608019999999999  2.9597560000000001   F   F   F
  6.6720658712023573  7.2498506425732323  7.8838388810034434   T   T   T
  0.7476360272725939  0.3451864169340655  5.1993543180369768   T   T   T
  0.7711660000000000  0.2968220000000000  0.3425450000000000   F   F   F
  3.6844579999999993  8.7067730000000001  2.9597560000000001   F   F   F
  9.5110430000000008  5.3427920000000011  0.3425450000000000   F   F   F
  3.6844579999999993  5.3427920000000011  0.3425450000000000   F   F   F
  6.6169969997727200  0.5909835479025753  5.0971440270469701   T   T   T
  9.5110430000000008  8.7067730000000001  2.9597560000000001   F   F   F
  9.5674061361566256  5.3532084247207621  5.0348265989391656   T   T   T
  3.6987009565703288  5.4655257510373154  5.3015604710902098   T   T   T
  9.5110430000000008  1.9788120000000000  1.8016859999999999   F   F   F
  6.6801295928190729  3.8522957394452684  6.5640315372761782   T   T   T
  0.6848169276007163  3.7600063793666880  6.6059017742262647   T   T   T
  3.8938565287029867  9.1258431629604448  6.4285113397071560   T   T   T
  6.5977509999999988  7.0247830000000011  1.8016859999999999   F   F   F
  0.7711660000000000  7.0247830000000011  1.8016859999999999   F   F   F
  3.6844579999999993  1.9788120000000000  1.8016859999999999   F   F   F
  9.6126131935054673  8.5584208903491668  6.4592936057456054   T   T   T
