F  H  I  N  Si
 1.0000000000000000
    11.6531699554687993    0.0000000000000000    0.0000000000000000
     0.0000000000000000   10.0919412160536002    0.0000000000000000
     0.0000000000000000    0.0000000000000000   37.9798949999999991
 F   H   I   N   Si 
 102  83   7  16   8
Selective dynamics
Cartesian
  2.4646889999999999  2.6830460000000005  0.8160649999999999   F   F   F
  8.4895222962700565  9.4617251394781672  7.5907958987184578   T   T   T
  5.9863954061270475  4.2341165911587773  7.7053795177782876   T   T   T
 11.4773750976341926  4.6119526866164726  7.3100589945990988   T   T   T
  2.4638130000000000  1.2740720000000001  2.8003459999999998   F   F   F
  8.2903979999999997  1.2740720000000001  2.8003459999999998   F   F   F
  5.3771050000000002  6.3200430000000001  2.8003459999999998   F   F   F
 11.2036899999999999  6.3200430000000001  2.8003459999999998   F   F   F
  3.6844579999999993  0.5703440000000000  0.8160649999999999   F   F   F
  2.8336702166394945  9.4743094480659433  7.4164540762297939   T   T   T
  9.5110430000000008  0.5703440000000000  0.8160649999999999   F   F   F
  6.5977509999999988  5.6163140000000000  0.8160649999999999   F   F   F
  2.3638827701868208  6.3610445943561906  9.9014125223626870   T   T   T
 -0.6427504813009317  6.1219125833761767  9.7353120586282262   T   T   T
  0.0603050255739773  3.2823503557981111 10.4151579864610042   T   T   T
  2.6027973611588440  3.8591619770571719 10.5334247819010951   T   T   T
  0.8060339116455368  5.2728858140924029 11.7282205865179314   T   T   T
  3.9395414603186523  1.0162488007722459 16.3560822072216361   T   T   T
  1.2383045885963671  1.1101790859762426 16.4188079754221903   T   T   T
  0.7711660000000000  5.6163140000000000  0.8160649999999999   F   F   F
  7.8294406841486888  2.6558380129389398  5.2958215712066865   T   T   T
  2.0981199715355077  2.8284332510177617  5.4875714844374999   T   T   T
 10.7319016602689636  7.9375706805052193  5.5463869819486300   T   T   T
  0.7711660000000000  8.4342629999999996  2.8003459999999998   F   F   F
  9.5110430000000008  3.3882919999999999  2.8003459999999998   F   F   F
  3.6844579999999993  3.3882919999999999  2.8003459999999998   F   F   F
  2.6672846295973067  8.1611216196170151  5.4364267458643978   T   T   T
  8.3518708414183340  8.1746556378493356  5.5626305298041974   T   T   T
  5.4348733835467637  3.0146293811153120  5.7498515227339828   T   T   T
 11.3136091502046785  3.2426292238158290  5.3500596506888902   T   T   T
  3.8820077973595435  7.2755222389099661  7.3367061310740622   T   T   T
  9.5471233862417186  7.2983581328583282  7.5269664725372003   T   T   T
  0.5671146747403931  2.2640648905851246  7.3415924609249572   T   T   T
  6.8968190326121865  1.9875896028795004  7.4246173862843747   T   T   T
 11.2045659999999998  7.7290169999999998  0.8160649999999999   F   F   F
  5.3779810000000001  7.7290169999999998  0.8160649999999999   F   F   F
  8.2912739999999978  2.6830460000000005  0.8160649999999999   F   F   F
  7.8183959999999999  6.3200430000000001  2.8003459999999998   F   F   F
  1.9918110000000000  6.3200430000000001  2.8003459999999998   F   F   F
 10.7316889999999994  1.2740720000000001  2.8003459999999998   F   F   F
  4.9051039999999997  1.2740720000000001  2.8003459999999998   F   F   F
  5.1361594600901954  7.9504859500671579  5.4358202332072478   T   T   T
  1.0679230974728595  2.5297328992031520 14.1107113373703310   T   T   T
  3.6556846789395441  2.6243290441402811 13.7270610263306381   T   T   T
  2.5282342290648110  0.4271323735790488 14.2155361096900759   T   T   T
  4.0764696441652211  8.2400688142195673 18.0846444984648862   T   T   T
  9.0869575733109649  4.4355358212685756 10.2851472724181434   T   T   T
  7.6025719602228126 11.0974920747913899 12.9509224655932176   T   T   T
  2.3302527972246789  1.1630630403624558 10.1107511133475949   T   T   T
  9.0090175455369685 -1.0104536074089263 13.9316436640928867   T   T   T
  3.8891068254255465  3.9287685528417535 16.1380367821591086   T   T   T
  6.5180762831779404 10.7901080467066048 22.0496650612948244   T   T   T
 10.7567856452653086 10.7921108406162070 18.5984618633942667   T   T   T
  9.1540542678353063  6.9720895645996102 20.9138015817500502   T   T   T
  2.1547629490558378 11.0059970459455911 19.1338945011198867   T   T   T
  5.0958351539460320  9.9537974517747951 20.1852689389152467   T   T   T
 12.0071282984999428  8.8079416916920135 18.9109727898778353   T   T   T
 12.9832258832641170 -0.9939197882513027 10.1304843774278499   T   T   T
 10.7707772349506783  6.7609127450648270 19.0823979636869012   T   T   T
  5.9046044469220007  7.0945897491769436 19.9585303642913807   T   T   T
  5.9984805397556435  4.1893766951832658 13.8288523074413536   T   T   T
  5.9326695597735890  0.1954610382254437 15.1033677218290947   T   T   T
  5.5488098374532138  2.2951577546013966 11.7231424478113908   T   T   T
  4.2779629803950350  2.4120979414676014 18.7572554057904526   T   T   T
  9.4498758412350892  7.8223328671297274 10.2789043894239995   T   T   T
  6.7065541177591586  4.8622696732815394 10.6465727469691611   T   T   T
  6.5977509999999988  8.4342629999999996  2.8003459999999998   F   F   F
  7.9769734244152009  2.2390052156877376 10.4854583761930975   T   T   T
  8.5991238684612643  5.3713039574235761 12.5096836374058480   T   T   T
  2.1414286039801462  6.5414658942164268 18.6914294870085271   T   T   T
  1.3388492758991131  6.6626103247304753 16.0307313063811776   T   T   T
  3.3851597175873422  8.3317362423640766 15.6087162624496578   T   T   T
  3.6947200971147036  6.3458001744402317 16.6984976242329957   T   T   T
  6.6186151959410191  9.1334180037762280 17.6232751916163970   T   T   T
  6.6111185046213645  6.9688536382762560 15.8651948249599677   T   T   T
  9.2277468937310623  6.8239283884614625 16.1929099215679315   T   T   T
  9.3393056197007827  9.1401552843096923 17.6381801542353216   T   T   T
  7.8498342757252964  7.2581207320164474 18.1875954098046968   T   T   T
  5.8696582376477986  9.4534800963955448 12.3073760758207982   T   T   T
  6.0472320197082166  6.7989961533209469 13.3006010499359988   T   T   T
  3.3589937122478104  6.5296605962121683 13.2641303475821175   T   T   T
  3.0769391930476977  9.0746782774537937 12.3548038189997627   T   T   T
  4.6838533639062145  7.4701106992126025 11.3211897672508499   T   T   T
  8.7216342380185914  3.5456845430064803 15.1763315032185933   T   T   T
  6.7687272983879074  4.3456339047606871 16.9672250050418221   T   T   T
  6.4957428860643995  1.8789167665413908 17.9945922376859286   T   T   T
  8.4432695077522215  1.0927200122405258 16.0592533588671884   T   T   T
  8.6613936918577199  2.8724100536640065 17.7071369361400386   T   T   T
  9.6293035779352305  3.0631988723679116 12.3157703118444655   T   T   T
  4.9042279999999998  2.6830460000000005  0.8160649999999999   F   F   F
 -0.7921091267699413  9.5526365394021902 11.0886085905399554   T   T   T
  1.9909349999999999  7.7290169999999998  0.8160649999999999   F   F   F
  6.9778408877599691  4.9159901293037525  5.6139233561812985   T   T   T
  1.3305378156287333  5.0916989390105618  5.4652987172395235   T   T   T
  9.7326388522438112 10.1635837021282196  5.6576771367229854   T   T   T
  4.0985930267261335 10.1568787029761882  5.4929987134331455   T   T   T
 10.7308129999999977  2.6830460000000005  0.8160649999999999   F   F   F
  2.0917439022191204  4.0848920636017310  7.6339323228198701   T   T   T
 10.9684445765877552  9.3150254629876255  7.5484545820014413   T   T   T
  5.2435878556842264  9.2885047779476100  7.5515603854003173   T   T   T
  7.8175200000000000  7.7290169999999998  0.8160649999999999   F   F   F
  8.3827277964606708  3.8655940233143036  7.3299954027628509   T   T   T
  9.6927640600854694  0.8851911310601185  8.1072854757620014   T   T   T
  3.7314076016804898  4.8173469620820812 16.4915730632848678   T   T   T
  3.3461682010816114  1.6192126753803922  9.0024203296896523   T   T   T
  8.5588414754813567 -0.2299161158415686 13.5585328890042778   T   T   T
  7.3560861830190714  0.8601613952868276  4.5646898425135287   T   T   T
  1.9234103379465397  0.2730651251767661 10.0211963710124934   T   T   T
  4.4937385433641035  5.7823138669164376  4.4274660450420837   T   T   T
  6.8502746396960239 10.5065808861564260 12.7298590437223709   T   T   T
 10.0601295915884670  6.2688198749117019  5.0535042565631478   T   T   T
  4.7783900452470673  1.3001181193358644  8.1389480645684635   T   T   T
  0.4899067024091694  6.4828656182907141  7.4254230748629499   T   T   T
  3.6844579999999993  8.7067730000000001  1.9334300000000002   F   F   F
  1.6121010000000000  9.9032490000000006  0.0000000000000000   F   F   F
  7.4386859999999997  9.9032490000000006  0.0000000000000000   F   F   F
  4.5253930000000002  4.8572780000000000  0.0000000000000000   F   F   F
 10.3519780000000008  4.8572780000000000  0.0000000000000000   F   F   F
  6.6091578208991617  6.1686152554436005  8.0468645321594803   T   T   T
  9.5110430000000008  8.7067730000000001  1.9334300000000002   F   F   F
  0.7711660000000000  3.6608019999999999  1.9334300000000002   F   F   F
  6.5977509999999988  3.6608019999999999  1.9334300000000002   F   F   F
  8.5602647207044118  5.4940186680176319  5.2439963626886090   T   T   T
  9.5110430000000008  9.6740829999999995  3.3038510000000008   F   F   F
  0.7711660000000000  4.6281119999999998  3.3038510000000008   F   F   F
  6.6553031058879029  6.8523181609663597  9.5414761660360714   T   T   T
  5.7840581413184973 10.5299837332429931 21.4899524494872836   T   T   T
  3.7498997647835557  2.5341054455549550  7.5997819556894859   T   T   T
 10.0758378540528337 10.2372251995966383 18.1316618758399031   T   T   T
  8.6733279999999997  8.2231179999999995  3.3038510000000008   F   F   F
 10.0721736598707263  7.0794911777014953 10.0274358722739674   T   T   T
  5.7600360000000004  3.1771470000000002  3.3038510000000008   F   F   F
  5.0275962701873578  1.9730735941234285 18.3217649600817012   T   T   T
 11.5866209999999992  3.1771470000000002  3.3038510000000008   F   F   F
  4.8734622816997826  2.5065092664738424 12.3644290084083419   T   T   T
  4.6287673595313477  2.7349075493199084  9.0156806499942714   T   T   T
  5.1193611352098198  0.5195319311469986 15.5442676465436165   T   T   T
  9.8124909203592807  1.7488146896632817  9.5775957511295076   T   T   T
  5.8816851331198485  5.1360000032965605 13.9437235853070689   T   T   T
  1.7280474261859908  7.2024301994865230  8.4004965568095589   T   T   T
  6.5826027525079125  7.0551003547408895 19.3070503860008387   T   T   T
  7.8945327754837713  7.1605802310077582  8.4286460669591072   T   T   T
 11.2728690731844789  7.5989949928674800 19.0777752980837718   T   T   T
  3.6844579999999993  9.6740829999999995  3.3038510000000008   F   F   F
 12.1818110169780649 -0.8088473372262776 10.6502611057365186   T   T   T
  9.1435069228679424  2.4595018536729882  8.2307523752366141   T   T   T
 11.6381133936567291  9.7439375609375745 18.7879800345122021   T   T   T
  6.3403580900050072  7.8384085973218909  8.2077118316469306   T   T   T
  5.2786443851642293  9.0563742492112311 19.9263969105116345   T   T   T
 12.2126811862089646  8.1354590730350598  7.6707708570011626   T   T   T
  2.8040452418608051 11.7068794348511460 19.0489977861697355   T   T   T
  6.5977509999999988  4.6281119999999998  3.3038510000000008   F   F   F
  9.6546465525901013  7.0369466277671444 20.0709702031143422   T   T   T
 10.7998622613178448  2.1192577399952857  8.2081539255036304   T   T   T
  1.7092346236948257  7.3581527446158477  6.6648195823013534   T   T   T
  5.7568149999999996  9.9032490000000006  0.0000000000000000   F   F   F
  1.4823161451792497  1.0813357032603410  4.9921031452578193   T   T   T
  2.8435229999999998  4.8572780000000000  0.0000000000000000   F   F   F
  9.5110430000000008  6.3138210000000008  0.0000000000000000   F   F   F
  3.6844579999999993  6.3138210000000008  0.0000000000000000   F   F   F
  4.5704497426380559  4.4513668130243564  5.4525676381033108   T   T   T
  1.0307755115805681  9.5536559003682235  4.6147092831234593   T   T   T
  6.5977509999999988  1.2678499999999999  0.0000000000000000   F   F   F
  7.2699643697138674  9.3995405263599086  5.2514886842878994   T   T   T
  5.8539658650941035  0.1235136547167654  4.8371839445040488   T   T   T
 11.6939451471329967  0.4202351931451040  5.5798984123014161   T   T   T
  3.0523927110536908  5.1965222340016828  5.1729912630846844   T   T   T
  2.8467430000000000  8.2231179999999995  3.3038510000000008   F   F   F
  4.5221730000000004  8.2231179999999995  3.3038510000000008   F   F   F
 10.3487580000000001  8.2231179999999995  3.3038510000000008   F   F   F
  9.8046506866693814  4.6901033024794510  4.4664990492790748   T   T   T
  9.8573487814600735  4.9649603211126125  6.0850375527609275   T   T   T
  4.2796434884267631  5.9979955136186156  6.0550224823542802   T   T   T
  6.7801645665642702  0.6806949867529147  6.1021187512996642   T   T   T
  1.5136829541823735 -0.1286183196799369  6.1539807624145713   T   T   T
  1.6088800000000001  3.1771470000000002  3.3038510000000008   F   F   F
  7.4354649999999989  3.1771470000000002  3.3038510000000008   F   F   F
  9.5110430000000008  5.3427920000000011  1.3692119999999999   F   F   F
  3.6844579999999993  5.3427920000000011  1.3692119999999999   F   F   F
  6.5977509999999988  0.2968220000000000  1.3692119999999999   F   F   F
  0.7711660000000000  0.2968220000000000  1.3692119999999999   F   F   F
 -1.3679839971492003  8.8301186746035683 10.7764433795645331   T   T   T
  8.6701080000000008  4.8572780000000000  0.0000000000000000   F   F   F
  0.7711660000000000  1.2678499999999999  0.0000000000000000   F   F   F
 11.5833999999999993  9.9032490000000006  0.0000000000000000   F   F   F
  2.4236570908450590  7.6884946737350726 17.1549085770520868   T   T   T
  2.4889231927794735  2.0258455801892210 15.2529719225278413   T   T   T
  4.5311929148856098  8.0447288109899464 13.0730135498865128   T   T   T
  7.4496793149023546  2.6963683015663502 16.3479334829241587   T   T   T
  1.0712304377313118  4.8626491908562572  9.9377835790362798   T   T   T
  8.0018912420937607  3.8202584365772294 11.6630540050741924   T   T   T
  7.9022158837555416  8.1621707654592477 16.5801461234765171   T   T   T
  9.8786602231301881  1.8015115004910240  8.5608467166199969   T   T   T
  4.1128063515496249  2.0353407729022654  8.4315083120348415   T   T   T
  6.5977509999999988  3.6608019999999999  2.9597560000000001   F   F   F
  0.7711660000000000  3.6608019999999999  2.9597560000000001   F   F   F
  1.0213479557550069  0.2194119243225799  5.3161813999181815   T   T   T
  0.7711660000000000  0.2968220000000000  0.3425450000000000   F   F   F
  3.6844579999999993  8.7067730000000001  2.9597560000000001   F   F   F
  9.5110430000000008  5.3427920000000011  0.3425450000000000   F   F   F
  6.8726935604642323  7.0244796991472356  8.5694050382963347   T   T   T
  6.5977509999999988  0.2968220000000000  0.3425450000000000   F   F   F
  9.5110430000000008  8.7067730000000001  2.9597560000000001   F   F   F
  9.5846033817637117  5.3734871111791866  5.1972885458257636   T   T   T
  4.0900342572694504  5.3493180902995556  5.2695349981737056   T   T   T
  6.8219928351400929  0.2322530108381819  5.1726899574082088   T   T   T
  1.1481324679798870  7.2725481100970351  7.5469230988978460   T   T   T
  3.6844579999999993  5.3427920000000011  0.3425450000000000   F   F   F
  9.5928055240868737  8.7239308631040977  6.5994688728089672   T   T   T
  3.6844579999999993  1.9788120000000000  1.8016859999999999   F   F   F
  9.5110430000000008  1.9788120000000000  1.8016859999999999   F   F   F
  0.7711660000000000  7.0247830000000011  1.8016859999999999   F   F   F
  6.5977509999999988  7.0247830000000011  1.8016859999999999   F   F   F
  3.9860445178175921  8.7573033753282701  6.4888584093667587   T   T   T
  0.9226345519371859  3.6500465185969797  6.4150838451354737   T   T   T
  6.9578923105554882  3.4185869086807261  6.5280835365063128   T   T   T
