H  N  F  Si I 
 1.0000000000000000
    11.6531699554687993    0.0000000000000000    0.0000000000000000
     0.0000000000000000   10.0919412160536002    0.0000000000000000
     0.0000000000000000    0.0000000000000000   37.1426110000000023
 H   N   F   Si  I  
  64  16  83   8   7
Selective dynamics
Cartesian
  8.6733279999999997  8.2231179999999995  3.3038509999999999   F   F   F
  9.5110430000000008  8.7067730000000001  1.9334300000000000   F   F   F
  1.6121010000000000  9.9032490000000006  0.0000000000000000   F   F   F
  0.7711660000000000  3.6608019999999999  1.9334300000000000   F   F   F
  6.5977509999999988  3.6608019999999999  1.9334300000000000   F   F   F
  8.9011920136459715  6.1678558130685346  5.1375237103183329   T   T   T
  9.5110430000000008  9.6740829999999995  3.3038509999999999   F   F   F
  0.7711660000000000  4.6281119999999998  3.3038509999999999   F   F   F
 11.5866209999999992  3.1771470000000002  3.3038509999999999   F   F   F
  5.7600360000000004  3.1771470000000002  3.3038509999999999   F   F   F
  3.6844579999999993  8.7067730000000001  1.9334300000000000   F   F   F
  2.8467430000000000  8.2231179999999995  3.3038509999999999   F   F   F
  9.2244420695646223  4.7340156385225827  5.9440085118653068   T   T   T
  4.5253930000000002  4.8572780000000000  0.0000000000000000   F   F   F
  6.6331143881889068  6.5104049550261900  7.1562226231301969   T   T   T
 10.3519780000000008  4.8572780000000000  0.0000000000000000   F   F   F
  6.5977509999999988  4.6281119999999998  3.3038509999999999   F   F   F
  8.8523513750569336  2.3253627840563995  8.7894576056559313   T   T   T
  3.6844579999999993  9.6740829999999995  3.3038509999999999   F   F   F
  3.6844579999999993  5.3427920000000011  1.3692119999999997   F   F   F
  7.4354649999999989  3.1771470000000002  3.3038509999999999   F   F   F
  3.0681825193771703  6.2572205093969817  5.4240274086431253   T   T   T
  5.7568149999999996  9.9032490000000006  0.0000000000000000   F   F   F
 11.5833999999999993  9.9032490000000006  0.0000000000000000   F   F   F
  2.8435229999999998  4.8572780000000000  0.0000000000000000   F   F   F
  8.6701080000000008  4.8572780000000000  0.0000000000000000   F   F   F
  0.7711660000000000  0.2968220000000000  1.3692119999999997   F   F   F
  6.5977509999999988  0.2968220000000000  1.3692119999999997   F   F   F
  0.7418466256159580  6.6118452908050811  8.9400084825697750   T   T   T
 10.4932946800167777  5.6259150288201427  5.3294213621927629   T   T   T
  4.1948131086769243  5.4495421378051079  4.4754155111743525   T   T   T
  7.6043944786669444  0.3004849161890768  5.1750776282216391   T   T   T
  3.6184871112908779  1.9800790150671994  9.4884660285315263   T   T   T
  6.7924366906944345  6.4885720667141760  8.8173118320643464   T   T   T
  4.2020545831195015  5.2028676247290822  6.1370440976954459   T   T   T
  0.8303040060816640  6.5262675137581336  7.2608234473419948   T   T   T
  8.8526837071779649  2.1492048393921515  7.1313963834054723   T   T   T
  7.4386859999999997  9.9032490000000006  0.0000000000000000   F   F   F
  1.7565319296335347  0.3249308137763294  5.0567465022261198   T   T   T
  0.5443028668604767  0.8463946799474599  6.0868510194959482   T   T   T
  6.2700285002327591  0.8361412964209847  6.0498170113398144   T   T   T
  3.1880523685754021  1.1177022028798029  8.1164682818314517   T   T   T
  9.5110430000000008  5.3427920000000011  1.3692119999999997   F   F   F
  7.0653465307633772  7.9276996149710994  7.9622731642067341   T   T   T
  0.3941725632834815  9.4392187039022879  5.3126350835803704   T   T   T
  2.9607338192858137  4.5618775410011159  5.2349126158382031   T   T   T
  3.6844579999999993  6.3138210000000008  0.0000000000000000   F   F   F
  9.5110430000000008  6.3138210000000008  0.0000000000000000   F   F   F
  0.7711660000000000  1.2678499999999999  0.0000000000000000   F   F   F
  6.5977509999999988  1.2678499999999999  0.0000000000000000   F   F   F
  6.1677148512655036  0.7632751932901580  4.3805630930993287   T   T   T
  5.4791148357217390  7.2921023723804463  8.0867932149857964   T   T   T
  1.9474995124181020  7.4495981176387804  8.1334241490465917   T   T   T
 10.2653108655767156  1.8453742086544231  7.9972677730989030   T   T   T
  8.9544497601424968  0.7814398281824598  8.1195407525126910   T   T   T
  4.5695651659935645  2.0990469569112071  8.1031490390841476   T   T   T
  6.2039539382992013  9.4399147388351103  5.2808603343248732   T   T   T
  4.5221730000000004  8.2231179999999995  3.3038509999999999   F   F   F
  1.6088800000000001  3.1771470000000002  3.3038509999999999   F   F   F
 11.8908836841842991  0.7631742380808416  4.4318804051656784   T   T   T
 11.9956287792317706  7.9696532196300955  8.0039787555490580   T   T   T
  9.4580436080642567  4.7861957024788762  4.3032056266172471   T   T   T
  3.0157864762748967  2.8127030783805274  8.1649539292485258   T   T   T
 10.3487580000000001  8.2231179999999995  3.3038509999999999   F   F   F
  0.7711660000000000  0.2968220000000000  0.3425450000000000   F   F   F
  0.7344244134735526  0.3179220062668536  5.2138688096138237   T   T   T
  6.4904323514000266  7.0630112719183069  8.0190535432279741   T   T   T
  3.5997956321014342  5.3741785479571238  5.3090610452072573   T   T   T
  9.5168896167593005  5.3377250676777619  5.1676621267025533   T   T   T
  3.6844579999999993  8.7067730000000001  2.9597560000000001   F   F   F
  9.5110430000000008  5.3427920000000011  0.3425450000000000   F   F   F
  3.6844579999999993  5.3427920000000011  0.3425450000000000   F   F   F
  6.5977509999999988  3.6608019999999999  2.9597560000000001   F   F   F
  6.5977509999999988  0.2968220000000000  0.3425450000000000   F   F   F
  3.5993877394980656  2.0065889165009878  8.4622775653650475   T   T   T
  9.2361660256018929  1.7700575357437225  8.0159533301313814   T   T   T
  0.9627149115967044  7.1427109838107334  8.0851937588838911   T   T   T
  0.7711660000000000  3.6608019999999999  2.9597560000000001   F   F   F
  6.5714044917142571  0.3132960222763971  5.2119600677515514   T   T   T
  9.5110430000000008  8.7067730000000001  2.9597560000000001   F   F   F
  6.5977509999999988  8.4342629999999996  2.8003459999999998   F   F   F
  4.9247084600054629  9.6904824042529647  7.3966848009916912   T   T   T
 10.7423850893484349  9.2693059508843074  7.5654258180727654   T   T   T
  1.7448382957237354  4.1003105988375008  7.8732526967991650   T   T   T
  7.6132611495777294  4.2846435269080105  7.7791558776719016   T   T   T
  3.7914122344529781  7.5554314099979516  7.6735793283127682   T   T   T
  5.4518623616255226  3.1162746559557410  5.4097195671391605   T   T   T
  8.3402855214780001  7.8609789170990902  5.5602691687387438   T   T   T
  2.5176569778230569  7.9746653463239827  5.6729911414735250   T   T   T
  3.6844579999999993  3.3882919999999999  2.8003459999999998   F   F   F
  9.5110430000000008  3.3882919999999999  2.8003459999999998   F   F   F
  0.7711660000000000  8.4342629999999996  2.8003459999999998   F   F   F
  9.9178271671149609  1.1207471602245671 16.9414024880041332   T   T   T
  2.1183119553383132  8.0694836909853898 10.4390023224272284   T   T   T
  2.5516639911320218  7.5267163747751633 13.0271146540630660   T   T   T
  9.7321785689957423  5.6351020954598505 11.9804399948798999   T   T   T
 11.6493990058201238  5.5737914024637281 10.3170330547142264   T   T   T
  9.7388629198397219  3.6647552509807588 10.4393741136233125   T   T   T
 11.2036899999999999  6.3200430000000001  2.8003459999999998   F   F   F
  8.2903979999999997  1.2740720000000001  2.8003459999999998   F   F   F
  3.8793777175798145  1.8249891234846161 18.0672806624263984   T   T   T
  5.3027988198987428  0.0107526342534512 19.0111369786500148   T   T   T
  5.7999072587739766  2.5892358477552442 19.4640957922006876   T   T   T
  3.5878655822430172 10.1383499943533888  5.3857072195509472   T   T   T
 11.2045659999999998  7.7290169999999998  0.8160649999999999   F   F   F
 10.7316889999999994  1.2740720000000001  2.8003459999999998   F   F   F
  8.8555590793915577  6.3824296816222601 14.8707222355163040   T   T   T
  8.8165981091010632  3.9540246394864722 14.2122602354867542   T   T   T
  1.9918110000000000  6.3200430000000001  2.8003459999999998   F   F   F
  7.8183959999999999  6.3200430000000001  2.8003459999999998   F   F   F
  2.4646889999999999  2.6830460000000005  0.8160649999999999   F   F   F
  8.2912739999999978  2.6830460000000005  0.8160649999999999   F   F   F
  5.3779810000000001  7.7290169999999998  0.8160649999999999   F   F   F
  7.8175200000000000  7.7290169999999998  0.8160649999999999   F   F   F
  0.6566785288159448  5.2415842964682380  5.9950695154995888   T   T   T
  6.7133602171641922  5.1633517757825222  5.7075554114282303   T   T   T
 11.1367381809144685  3.1455336809584749  5.4964121788436948   T   T   T
  9.6335249570612049  7.0961000602195634  7.4434380191415048   T   T   T
  2.4638130000000000  1.2740720000000001  2.8003459999999998   F   F   F
  0.4987583646435281  2.0599983081892383  7.3989241594928910   T   T   T
 10.9538507072578497  4.1726631747695926  7.6880679716331093   T   T   T
  5.1860233699234657  4.4377907624438286  7.4381262963277450   T   T   T
  4.9042279999999998  2.6830460000000005  0.8160649999999999   F   F   F
 10.7308129999999977  2.6830460000000005  0.8160649999999999   F   F   F
  1.9909349999999999  7.7290169999999998  0.8160649999999999   F   F   F
  7.0374659616941946  0.0364531042219508 11.5189398180863787   T   T   T
  9.5110430000000008  0.5703440000000000  0.8160649999999999   F   F   F
  3.6844579999999993  0.5703440000000000  0.8160649999999999   F   F   F
 10.6182223986152824  5.0010676898567983 15.9638006149133904   T   T   T
  8.6235906392343900  6.1283001113060518 17.3599515823241575   T   T   T
  1.9681462454410452  1.7593692456186758 13.0931120714608298   T   T   T
  1.2201973444695819  4.1425920458317673 13.0504875641046656   T   T   T
  3.2147094387655719  2.9766183476578205 20.1683614672629936   T   T   T
  0.9400962791567870  0.9425994088255932 10.9789321606570489   T   T   T
 -0.5320910354546449  2.0992519249407371 12.9958755252474578   T   T   T
  2.6372776415381813  3.0595866695520848 11.0361574909436655   T   T   T
  9.3958111590515276 10.0299429371618061  5.6664775800410450   T   T   T
  6.2752073891024542  2.2418729888015418  7.4903310974040327   T   T   T
  8.3065181720381425  9.1477620057123659  7.6433872256750739   T   T   T
  2.4993093711981218  9.6241004533363892  7.4799802558956658   T   T   T
  7.8504059170466496  2.9759296379068214  5.7771237841692091   T   T   T
  1.8776273050284360  3.1557657908756402  5.6597015279090206   T   T   T
 10.7729005938373952  8.0280087468899879  5.4953303168621970   T   T   T
  4.9342900467599122  8.1137069959517252  5.5765206746222367   T   T   T
  4.9051039999999997  1.2740720000000001  2.8003459999999998   F   F   F
  9.4374246333606546  0.3615354860167215 19.2761090379288191   T   T   T
  2.7146613314286818  0.3708332943031145 19.7149875484277004   T   T   T
  4.4165142525916270  7.7467376833387531 11.3535882515123241   T   T   T
  4.3832579031730541  9.4482904274225579 13.1950475649912722   T   T   T
  4.0027455664965519 10.0767483604757349 10.5714228910620189   T   T   T
  6.8273210116992802  5.1465593707582133 15.6220929740294743   T   T   T
  9.8270745793486416  7.5246238816837252 10.3291400016919290   T   T   T
  5.3771050000000002  6.3200430000000001  2.8003459999999998   F   F   F
  7.7720176763193152  5.8165837227226200 10.3745672870415788   T   T   T
  0.7711660000000000  5.6163140000000000  0.8160649999999999   F   F   F
  8.8806190174156292  2.8670600655345848 18.3880036303322711   T   T   T
  6.5977509999999988  5.6163140000000000  0.8160649999999999   F   F   F
  7.1794125877706341  2.2849797369293343 10.4750338862286387   T   T   T
  9.3239880282374212  0.7243613591233422 10.8209555681601284   T   T   T
  8.6147975073897189  0.3220390194991737 13.4080962446194860   T   T   T
  6.4711787973208308  1.9309026627087522 13.0479660163870648   T   T   T
  7.6184987447765060  1.8436519429509484 16.2555042770016875   T   T   T
  8.1831230964444988 -0.6614559483381091 17.1107272421129473   T   T   T
  3.7179370308486055  8.8733619979614993  6.5430998870348454   T   T   T
  9.5435200110166392  8.5641291039724088  6.5784317083963586   T   T   T
  9.5110430000000008  1.9788120000000000  1.8016859999999999   F   F   F
  6.5101880133992776  3.7078698539085679  6.6124416377695896   T   T   T
  0.5878569263295769  3.6428178760764367  6.7030945435195157   T   T   T
  6.5977509999999988  7.0247830000000011  1.8016859999999999   F   F   F
  0.7711660000000000  7.0247830000000011  1.8016859999999999   F   F   F
  3.6844579999999993  1.9788120000000000  1.8016859999999999   F   F   F
  3.0975975110571192  8.9504096967322972 11.8696775541903889   T   T   T
  8.3227924959274819  1.0726834086322150 17.8887285865865699   T   T   T
  8.0392247284819920  1.5137624790385518 12.0372413736388904   T   T   T
  9.6972938297167239  5.6326989453401213 10.1279758987883728   T   T   T
  8.7025973355530208  4.8642965150503397 15.9224551929091351   T   T   T
  0.9066865718402376  2.6954044351771222 11.8570350384340859   T   T   T
  4.2905727245260579  1.4387511187611288 19.8282425860583089   T   T   T
