H  N  F  Si I 
 1.0000000000000000
    11.6531699554687993    0.0000000000000000    0.0000000000000000
     0.0000000000000000   10.0919412160536002    0.0000000000000000
     0.0000000000000000    0.0000000000000000   41.9057279999999963
 H   N   F   Si  I  
  84  16 103   8   7
Selective dynamics
Cartesian
 10.5091070641028033  1.8905515017107288  8.0035973946768895   T   T   T
  7.1555534475167502  2.8599265683421740 19.5922340286196111   T   T   T
  3.7765810000000002  9.6227499999999999  3.3038510000000003   F   F   F
 -1.2541310411089779  0.9782143698827723 21.0254448644465377   T   T   T
  8.7654509999999988  8.1717849999999999  3.3038510000000003   F   F   F
  1.0774912438628765 11.1972638075104438 15.0406990435529959   T   T   T
  5.9745155396781016  7.7211734414568793  8.1679337736588664   T   T   T
  7.1788585249487777  5.5670796086711114 17.9405257294072413   T   T   T
 12.5431447077710949  6.7469250062343447  9.4250008060458406   T   T   T
  6.4217453493844650 13.2543062203677309 14.0245684299857487   T   T   T
  2.4116473297719110  5.7096212241531603 15.7607114036407712   T   T   T
  8.7622309999999999  4.8059450000000004  0.0000000000000000   F   F   F
  6.4922861910410887  6.7518142972477815  9.4667766904976354   T   T   T
 -1.1135562393173088  7.5716193527129949 18.9941991079009007   T   T   T
  5.6033454618963709  5.4914391086493737 11.2463800634671127   T   T   T
  5.8521590000000003  3.1258140000000001  3.3038510000000003   F   F   F
  2.9356460000000002  4.8059450000000004  0.0000000000000000   F   F   F
  9.6031659999999999  6.2624880000000003  0.0000000000000000   F   F   F
  3.7765810000000002  6.2624880000000003  0.0000000000000000   F   F   F
 11.1583186939653736  1.3071808001716338 13.7240048614412959   T   T   T
  9.1722282191617861  2.3232090760738915  8.9718127475047442   T   T   T
  6.6219119266333974  0.2323072076835057  4.0604044228307297   T   T   T
  0.9367722832662698  9.5710923784963917  4.4903371221464408   T   T   T
  2.9189890727479608  1.7948495315338850 15.3098387165655545   T   T   T
  6.1230777048723990  6.0454742910202075  7.9919427302382928   T   T   T
  9.1379479733824418  0.8620532440671331  8.1028781626801933   T   T   T
  9.0358571417786795  2.3220844875292745  7.3012277296873274   T   T   T
  9.7720118447051156  4.6300065888224058  4.4849066927262351   T   T   T
 11.6787440000000000  3.1258140000000001  3.3038510000000003   F   F   F
  4.7459433751602047  2.0093955403472137  8.0107310345216387   T   T   T
  0.8632889999999999  3.6094689999999998  1.9334300000000004   F   F   F
  6.6898739999999988  3.6094689999999998  1.9334300000000004   F   F   F
  8.5007956216042846  5.2959296530306741  5.3673644188700607   T   T   T
  9.6031659999999999  9.6227499999999999  3.3038510000000003   F   F   F
  0.8632889999999999  4.5767790000000002  3.3038510000000003   F   F   F
 10.4441009999999999  4.8059450000000004  0.0000000000000000   F   F   F
  9.4690106833693086 -0.9045557787355413 16.8336062914137301   T   T   T
  3.4637155144772844  1.1614345189374944  8.7168158795721737   T   T   T
  9.9576171896031056  6.1767368127498283  5.1916148897850114   T   T   T
  7.5202522679832731  6.9842822496113941  8.1326156006631720   T   T   T
  0.8632889999999999  1.2165170000000001  0.0000000000000000   F   F   F
  4.6142960000000004  8.1717849999999999  3.3038510000000003   F   F   F
 11.6755230000000001  9.8519159999999992  0.0000000000000000   F   F   F
 11.0057551817541501  8.2913548567234656 15.6892922942382285   T   T   T
  1.7665567193728515  6.8600857872039507  7.9911391501414935   T   T   T
 10.6702430325384121  9.6031422120982235 19.6001921064752906   T   T   T
  4.1820681317226409  6.1309052632006775  5.0337164914416119   T   T   T
  6.6898739999999988  4.5767790000000002  3.3038510000000003   F   F   F
 11.3749569649716307  0.2050290182150511  5.4154302730709176   T   T   T
  5.9332400865259904  4.1908350694357992 16.7705027470953105   T   T   T
  9.6031659999999999  8.6554400000000005  1.9334300000000004   F   F   F
  7.3760445917272524 -0.9589880492257261 17.6193291225556052   T   T   T
  3.1435816369031562  2.6257467601865723  7.9193005202843301   T   T   T
  9.1716600100698074  6.4178305179055393 18.0540707367876436   T   T   T
  7.5275879999999997  3.1258140000000001  3.3038510000000003   F   F   F
  4.8690161435609003  2.8461188865439357 15.4144649519919401   T   T   T
  7.1299751953257298  9.4177973997970117  5.3808397289516288   T   T   T
  7.1243582029878372  1.0324613517260737  5.4392027254414019   T   T   T
  4.1404321520838874  5.7369885246742056 14.4937413773133077   T   T   T
  3.5963864170266411  1.2430472049675214  7.0560772973493995   T   T   T
  0.3495003729903806  5.9124913292807291  8.0549113990108747   T   T   T
  3.7765810000000002  8.6554400000000005  1.9334300000000004   F   F   F
  1.7042239999999997  9.8519159999999992  0.0000000000000000   F   F   F
  7.5308089999999996  9.8519159999999992  0.0000000000000000   F   F   F
  4.6175160000000002  4.8059450000000004  0.0000000000000000   F   F   F
  3.7765810000000002  5.2914589999999988  1.3692120000000001   F   F   F
  0.2432970618995986  7.6119901576764439  8.1169247788748198   T   T   T
  6.6898739999999988  0.2454890000000000  1.3692120000000001   F   F   F
  1.7010029999999998  3.1258140000000001  3.3038510000000003   F   F   F
  2.3618605458259530 10.4387303444454460 20.1307188735561873   T   T   T
  1.1876391555611463  1.0328719830399333  5.1513237094408924   T   T   T
 10.4408809999999992  8.1717849999999999  3.3038510000000003   F   F   F
  6.6898739999999988  1.2165170000000001  0.0000000000000000   F   F   F
  2.9388659999999995  8.1717849999999999  3.3038510000000003   F   F   F
  0.8632889999999999  0.2454890000000000  1.3692120000000001   F   F   F
  9.9183346613678172  4.8106999728542972  6.1390762286786824   T   T   T
  4.1342935295534451  4.8268291217330539  6.0550588664351244   T   T   T
  5.6506575616050068  0.1785829888355919  5.4169211278701681   T   T   T
  1.1578508473730467 -0.3174392668189750  6.1336972178772600   T   T   T
  3.9089584679052209  4.5697020225403788  4.4065755898944685   T   T   T
  0.5751437786676334  6.5271285887156552 15.5971559411841092   T   T   T
  5.8489380000000004  9.8519159999999992  0.0000000000000000   F   F   F
  9.6031659999999999  5.2914589999999988  1.3692120000000001   F   F   F
  2.7079163354806886  5.3271136125750305  5.3103331318214391   T   T   T
  9.6031659999999999  8.6554400000000005  2.9597560000000009   F   F   F
  3.7765810000000002  5.2914589999999988  0.3425450000000003   F   F   F
  3.7765810000000002  8.6554400000000005  2.9597560000000009   F   F   F
  9.4741638670180865  1.8486837421798368  8.1082566391042548   T   T   T
  9.5345914887586201  5.2325553800540545  5.2813068701362589   T   T   T
  6.6898739999999988  0.2454890000000000  0.3425450000000003   F   F   F
  6.6330179745469051  0.1930246383891626  5.0831381102668320   T   T   T
  0.8066775032569766  6.7825390815346038  8.3956262310292029   T   T   T
  0.8632889999999999  0.2454890000000000  0.3425450000000003   F   F   F
  0.7471633864620641  0.1050339071812745  5.2831609187562583   T   T   T
  6.5341740833587707  6.8856765736227565  8.4417724568618890   T   T   T
  0.8632889999999999  3.6094689999999998  2.9597560000000009   F   F   F
  6.6898739999999988  3.6094689999999998  2.9597560000000009   F   F   F
  3.7317824379980014  1.7673935490549799  7.9351069812719333   T   T   T
  3.7317070703210602  5.2136352903427285  5.1867341434370307   T   T   T
  9.6031659999999999  5.2914589999999988  0.3425450000000003   F   F   F
  6.6898739999999988  8.3829300000000000  2.8003460000000007   F   F   F
  6.0187829186597197  4.6942256662070516 17.6069686970827490   T   T   T
  8.3833970000000004  2.6317130000000000  0.8160650000000000   F   F   F
  7.7737322718871988  6.2336276860304825 18.3513658154668846   T   T   T
  4.9972269999999996  1.2227390000000000  2.8003460000000007   F   F   F
  4.8787522270042247  7.7535799274838819  5.5777588197983530   T   T   T
 11.7738515914853696  0.6690442827949358 14.1393080864870964   T   T   T
 10.4900254272743876 10.5794198771875863 19.5682264827732801   T   T   T
  8.3803028666095205  7.8470772120257308 12.5565836953633170   T   T   T
  3.4342857924478571  5.6800180148407531 15.7573793816451726   T   T   T
 -0.8326088717788993  8.1637234032170092 19.7341852586663933   T   T   T
  4.6611930085709963  5.8117887071343750 13.6513575288243043   T   T   T
  5.7487883759232492  3.3498241061803040 15.5228832111772395   T   T   T
 10.1238954708745670  6.6693518038210176 17.9442747467190991   T   T   T
 -1.3706855520970895  1.2586677384049119 21.9407475619264964   T   T   T
  3.8425338240222224  2.7611766356181282 17.7275856588235747   T   T   T
  3.0549702424526499  4.0150783380236357 21.2607759729503485   T   T   T
  3.4503886277565456  7.8294089470717658 10.1145799358761366   T   T   T
  1.2702720421848028  6.6316659836093610 11.1806609509644996   T   T   T
  7.9105189999999999  6.2687099999999996  2.8003460000000007   F   F   F
  2.0839340000000002  6.2687099999999996  2.8003460000000007   F   F   F
 10.8238120000000002  1.2227390000000000  2.8003460000000007   F   F   F
 10.8981140168583277  2.8460092811198807 15.8942938858493772   T   T   T
 11.5402532153265351  7.6680158751548904 15.1448034861852072   T   T   T
  8.0398863162720531  2.2542484202866495 18.4244739535962161   T   T   T
  9.3805210497623346  5.2807348309426247 10.9716134914957486   T   T   T
 10.7896466513078302  4.6847978534962715 13.1871712603373332   T   T   T
 10.0559347856802663  2.0441330865268217 12.9938774855206667   T   T   T
  5.4513015046171631  2.8772457260533293  5.6055927021095249   T   T   T
  5.9503980417764382  9.2796219340219910 17.5671908576161790   T   T   T
  2.5568119999999999  2.6317130000000000  0.8160650000000000   F   F   F
  2.5067881163339734  8.0274041090216102  5.3575683562032621   T   T   T
  2.3793103995701852  7.7713671596499090 17.4482695396368683   T   T   T
 10.5519401792388887  7.7401719985182664  5.5981265446312642   T   T   T
  0.8632889999999999  8.3829300000000000  2.8003460000000007   F   F   F
  2.5559360000000000  1.2227390000000000  2.8003460000000007   F   F   F
  8.3825209999999988  1.2227390000000000  2.8003460000000007   F   F   F
  5.4692280000000002  6.2687099999999996  2.8003460000000007   F   F   F
 11.2958130000000008  6.2687099999999996  2.8003460000000007   F   F   F
  0.8632889999999999  5.5649810000000004  0.8160650000000000   F   F   F
  8.7184944429469375  7.3861776250858737 14.9828620155340548   T   T   T
  8.1643326823030904  8.1360321298473135  5.7002184382722954   T   T   T
  8.4915074729785402  1.6772142324849213 15.8062488022713712   T   T   T
 11.1824805761687216  2.9483985014347227  5.5484837033820122   T   T   T
  3.3851586244812886  7.0216985135930559  7.3778196691417932   T   T   T
  3.9988575754708373  8.9868844472578697 15.6790304945957359   T   T   T
  3.5754181366154771  9.8843705114348364 17.9667795013736189   T   T   T
  4.3046460692751367  8.5691506822133139 12.5586625785256594   T   T   T
  1.8685929549511529  3.1243483251424586 19.2225828286445939   T   T   T
  1.0486512744114518  5.6749245443577152 15.8282984446068511   T   T   T
  0.5490974554888396  2.1240564162166669  7.5885143746720107   T   T   T
  6.5423540517785179  3.1727064992664804 20.2580689361745421   T   T   T
  4.3566467243882530  7.9438855487619238 19.3200984221717000   T   T   T
  8.3530308683836072 -0.9478532052618444 17.7809096842840830   T   T   T
 10.3349828699508315 -0.7014821542054457 16.4046084609657896   T   T   T
  1.7320244441021604  9.7385580973011123 20.2397952867133561   T   T   T
  1.0196885533276865  4.8683016025981258  5.5591548495896852   T   T   T
  3.7765810000000002  0.5190110000000000  0.8160650000000000   F   F   F
  2.4089255381428849  9.2687727753542504  7.4246189958631676   T   T   T
  9.6031659999999999  0.5190110000000000  0.8160650000000000   F   F   F
  6.3884112582039405  6.8963577492806794 15.6971534969796469   T   T   T
 10.8229360000000003  2.6317130000000000  0.8160650000000000   F   F   F
  3.7916308055653984  2.1643864591944859 14.8859928976826676   T   T   T
 10.8589175236691560  8.9722445818245653  7.6648702548306904   T   T   T
  2.1468943615119924  7.3872124669400971 13.6783783752421790   T   T   T
  5.4701040000000001  7.6776840000000011  0.8160650000000000   F   F   F
  6.5283458143350650 12.9939599448961278 13.1076946740990792   T   T   T
  2.0722077353965034  4.0050040453112477  7.5677792930749410   T   T   T
 11.2966890000000006  7.6776840000000011  0.8160650000000000   F   F   F
  7.9096430000000000  7.6776840000000011  0.8160650000000000   F   F   F
  6.6898739999999988  5.5649810000000004  0.8160650000000000   F   F   F
  9.2676749490616945  7.1229409599712543  7.5942908630740993   T   T   T
  7.1096668661814393  9.2057848572071528 14.4575780530841538   T   T   T
  8.4606366675003972  9.4106877620435636  7.7686042088860248   T   T   T
  5.3664165428623214  4.5026287386564254  7.4063077397456718   T   T   T
 11.3010585634396623  4.3976716556709832  7.4943557038694939   T   T   T
  9.6031659999999999  3.3369589999999998  2.8003460000000007   F   F   F
  7.7096767119753844  5.4844044430567731 13.7400600407162390   T   T   T
  3.7765810000000002  3.3369589999999998  2.8003460000000007   F   F   F
  2.0830579999999999  7.6776840000000011  0.8160650000000000   F   F   F
  3.5399675756380189  1.5893579473331132 20.2080757985607704   T   T   T
 10.4992313978245608  3.4704673398851749 18.4827147261386848   T   T   T
  2.4398185678680817  3.2400069322725051 10.4967939100172423   T   T   T
  2.4280799166202804  4.2962818649300329 12.7815614587209456   T   T   T
  2.1466083497366157  1.6906909004858108 12.4607616544180502   T   T   T
  4.2393008626322333  1.5353478189189400 10.7991737050815786   T   T   T
  4.6223304212410614  4.3513906419653265 11.0124981745405375   T   T   T
 10.9927726271017114  3.3638019860996304 11.0606141637473847   T   T   T
  1.9615636858419248  8.9594750598139861 11.7577686300157893   T   T   T
  9.7058886427862952 10.0007946015296660  5.7729022658017399   T   T   T
  3.9261098270918211 10.0000113760963867  5.6857964136542947   T   T   T
  4.8321564248943032  8.9716213055020599  7.6805008032590365   T   T   T
  6.8332582430146136  4.8510283033835337  5.4960453495064794   T   T   T
  6.1210801001973305  6.3143116396627539 11.1949131833108151   T   T   T
  4.9963509999999998  2.6317130000000000  0.8160650000000000   F   F   F
  3.2377587707171562  5.1668284996710545 18.8574349590420489   T   T   T
  6.3798719596826841  2.3016359028895468  7.7711566893488975   T   T   T
  7.7910612980527176  4.2687023355037814  7.6348030008396854   T   T   T
  1.7694945568518456 11.4185580944193035 15.7407120474951032   T   T   T
  8.8192354417717134  3.9575761773824412 16.7271580828510196   T   T   T
  7.8477453283398315  2.6377199755013150  5.8460768199284239   T   T   T
  1.9159065621085223  2.5979646595931825  5.5983367959832622   T   T   T
  8.6231594650336572  2.6928780483659742 10.7402564682933850   T   T   T
  9.6031659999999999  1.9274789999999999  1.8016860000000001   F   F   F
  9.5022714683085994  8.5565737463195521  6.7080359542965624   T   T   T
  3.7765810000000002  1.9274789999999999  1.8016860000000001   F   F   F
  0.8632889999999999  6.9734499999999988  1.8016860000000001   F   F   F
  6.6898739999999988  6.9734499999999988  1.8016860000000001   F   F   F
  3.6530864809053414  8.4866769004042890  6.5417553634115642   T   T   T
  0.7882061522284920  3.4823579723852793  6.5674248377639977   T   T   T
  6.6129170279557696  3.5749103418769561  6.6456626716738159   T   T   T
  9.5115574280283806  3.7603706748194830 12.1137331797194854   T   T   T
  9.6153456735342289  2.3452607222106820 17.2212201859589520   T   T   T
  3.6641194648573614  3.4252079835099547 19.5454342663854739   T   T   T
  3.5232953936449034  2.9128658864477468 11.9710541678340743   T   T   T
  7.1705241094645071  7.3643296366534328 13.9494767049488786   T   T   T
  2.9256813789910798  7.3866984161257134 11.9241713625421983   T   T   T
  4.2176492160525108  8.2346239893542670 17.4365255507844701   T   T   T
