H  O  F  Si I 
 1.0000000000000000
     9.8224603672820017    0.0000000000000000    0.0000000000000000
    -4.9112301836409999    8.5195690981519991    0.0000000000000000
     0.0000000000000000    0.0465723716690000   39.9999753796199968
 H   O   F   Si  I  
  21  48  25  20   4
Cartesian
  4.5945200000000002  8.3748500000000003 10.4276000000000000
  5.2533899999999996  1.7528100000000000  0.6906500000000000
  3.8986999999999998  6.2094899999999997 10.2764000000000006
  5.1289999999999996  7.1064100000000003 17.3545000000000016
 -1.9562100000000000  5.0246899999999997 11.7748000000000008
  7.6728899999999998  3.1584400000000001 18.3705999999999996
  8.0553200000000000  4.2029300000000003 20.3252999999999986
 -4.5094000000000003  7.9939099999999996 19.5466000000000015
  0.3421620000000000  6.7683299999999997  0.1034560000000000
  7.7090100000000001  2.5085500000000001  0.1000000000000000
 -0.6553410000000000  8.4482999999999997 10.6224000000000007
  6.2233200000000002  3.9847800000000002 11.1983999999999995
 -2.1134499999999998  6.0125900000000003  0.6941060000000000
 -0.8216030000000000  6.3330700000000002 10.4227000000000007
  6.1603100000000000  1.8643700000000001 10.3841999999999999
  1.1234299999999999  1.7886200000000001 10.3802000000000003
  0.3421620000000000  1.7528100000000000  0.6906500000000000
  1.4545600000000001  3.6058900000000000 11.3917999999999999
  2.7977799999999999  2.5085500000000001  0.1000000000000000
  2.7977799999999999  6.0125900000000003  0.6941060000000000
  5.2533899999999996  6.7683299999999997  0.1034560000000000
 -0.9400690000000000  5.3308000000000000 10.6346000000000007
  3.7793299999999999  5.5742900000000004  4.6435800000000000
 -2.2807900000000001  6.0219699999999996  7.0247700000000002
 -1.1157100000000000  3.1011899999999999  3.4906799999999998
  0.9217580000000000  3.3667300000000000 10.6587999999999994
  5.2533899999999996  6.7683299999999997  1.1034600000000001
  3.6544400000000001  5.1940700000000000 10.2302000000000000
 -1.3766499999999999  7.8076400000000001 10.3792000000000009
  5.6239499999999998  3.7028799999999999  5.2841899999999997
  0.3421620000000000  6.7683299999999997  1.1034600000000001
  3.2294100000000001  0.5895210000000000  2.9203600000000001
  6.2114200000000004  0.8536640000000000 10.3747000000000007
  5.4695400000000003  4.6865300000000003  8.2757799999999992
  0.7737940000000000  4.8493000000000004  2.9238100000000000
  0.7621260000000000  4.8197000000000001  8.4571500000000004
  8.1406399999999994  0.5895210000000000  2.9203600000000001
  8.1055399999999995  0.6821570000000000  8.3110800000000005
  5.6850199999999997  4.8493000000000004  2.9238100000000000
  0.8106360000000000  3.7769900000000001  5.3106499999999999
 -1.6605099999999999  7.8448799999999999  5.2918500000000002
  5.2533899999999996  1.7528100000000000  1.6906500000000000
  6.3875400000000004  1.2712800000000000  4.6931000000000003
 -2.1134499999999998  6.0125900000000003  1.6941100000000000
  3.1543600000000001  7.9757499999999997  5.4086400000000001
  1.3399000000000001  7.3609700000000000  3.4941300000000002
  0.3421620000000000  1.7528100000000000  1.6906500000000000
  5.7568799999999998  3.4017700000000000 10.5699000000000005
  2.7336800000000001  5.8887299999999998  7.1066700000000003
 -1.1024900000000000  5.4326499999999998  4.7630499999999998
  2.7666400000000002  2.6063200000000002  6.5953499999999998
  5.1197800000000004  6.8032100000000000  6.6385199999999998
  0.2636990000000000  6.8312799999999996  6.7406300000000003
  3.7955199999999998  3.1011899999999999  3.4906799999999998
  7.7090100000000001  2.5085500000000001  1.1000000000000001
  2.7977799999999999  6.0125900000000003  1.6941100000000000
  7.5522999999999998  2.6761499999999998  6.6311499999999999
  1.1109800000000001  0.8090480000000000 10.1958000000000002
  0.2338230000000000  2.0160399999999998  7.1022800000000004
  3.8431799999999998  2.7220800000000001  9.0570000000000004
  2.7977799999999999  2.5085500000000001  1.1000000000000001
 -3.4861100000000000  7.0788000000000002  9.0101600000000008
 -3.5713300000000001  7.3609700000000000  3.4941300000000002
  3.6959200000000001  7.9353999999999996 10.5033999999999992
 -1.1186900000000000  3.1017299999999999  9.1294400000000007
  1.4876900000000000  7.2383899999999999  9.1100100000000008
  5.1350100000000003  1.6726799999999999  6.9829400000000001
  3.0372100000000000  0.4521840000000000  8.1312700000000007
  1.3936599999999999  1.1437500000000000  4.8152200000000001
 -4.4231900000000000  8.0494800000000009 20.5309999999999988
  3.3261200000000000  0.3646800000000000 13.1334999999999997
  4.5171700000000001  1.0595600000000001 15.4896999999999991
  5.2603499999999999  2.0619200000000002 13.1318999999999999
  4.4430600000000000  3.5885300000000000 15.0196000000000005
  3.1343100000000002  3.0569600000000001 12.4999000000000002
  7.1949600000000000  7.6847599999999998 15.9461999999999993
  2.2270300000000001  5.7014300000000002 15.7630999999999997
  6.1042500000000004  7.2140599999999999 13.7576999999999998
  5.0795700000000004  6.1527099999999999 16.1726999999999990
  3.2521800000000001  6.6933100000000003 13.6757000000000009
  7.5619899999999998  5.3437200000000002 16.7988999999999997
  1.2492099999999999  4.9991199999999996 13.4247999999999994
  8.6294299999999993  6.3615100000000000 14.4406999999999996
  2.2859500000000001  8.3209199999999992 15.2096999999999998
  9.9044500000000006  3.8356200000000000 15.6809999999999992
 10.0882000000000005  2.0987200000000001 13.9023000000000003
 13.4146000000000001 -4.3079400000000003 21.2133000000000003
  7.0996499999999996  3.3762500000000002 19.1432000000000002
 -2.8193700000000002  4.9265100000000004 12.1893999999999991
 11.1367999999999991  1.6550100000000001 16.1941999999999986
  1.1801299999999999  7.5794300000000003 12.6292000000000009
  7.6160800000000002  2.8274200000000000 15.1179000000000006
  8.9384300000000003  2.5300300000000000 17.5686999999999998
 -4.9617199999999997  7.8336199999999998 17.9724000000000004
 -2.6388900000000000  8.4026399999999999  9.5128100000000000
 -1.1437299999999999  1.9901599999999999  2.3010400000000000
  4.6834899999999999  4.0727300000000000  9.5613899999999994
  1.3613900000000001  2.3245000000000000  5.9387499999999998
 -1.1281000000000001  6.4936800000000003  5.9988400000000004
  3.7675000000000001  1.9901599999999999  2.3010400000000000
  4.6757900000000001  4.3429200000000003  4.0716400000000004
 -3.5993499999999998  6.2499399999999996  2.3045000000000000
 -0.1766150000000000  4.2836600000000002  4.1155099999999996
  8.6011699999999998  2.1392600000000002  7.8279699999999997
 -0.1015750000000000  4.2280600000000002  9.7171599999999998
  6.0943100000000001  6.0950899999999999  7.7278500000000001
  6.1667300000000003  2.2808600000000001  5.9276600000000004
  3.6767500000000002  1.8818600000000001  7.6871999999999998
  1.3118799999999999  6.2499399999999996  2.3045000000000000
  1.3193200000000000  6.2378700000000000  7.8561899999999998
  7.2491599999999998  0.0474948000000000  4.1174600000000003
  2.3035700000000001 -0.0495851000000000  4.1149399999999998
  2.4641400000000000  8.4990400000000008  9.6037400000000002
  3.6605099999999999  6.5339299999999998  5.9730400000000001
  6.8192100000000000  6.0455500000000004 15.0934000000000008
  1.5173300000000001  6.7187799999999998 14.3131000000000004
  3.6988500000000002  2.0402600000000000 14.0894999999999992
  9.3494700000000002  2.0462699999999998 15.6760000000000002
