As F  H  N  Si
 1.0000000000000000
    11.6531699554687993    0.0000000000000000    0.0000000000000000
     0.0000000000000000   10.0919412160536002    0.0000000000000000
     0.0000000000000000    0.0000000000000000   40.0000000000000000
 As  F   H   N   Si 
   6  83  69  16   8
Selective dynamics
Cartesian
  7.7528879999999996  7.8831920000000002 14.3907469999999993   T   T   T
  6.3208399999999996  2.2773659999999998 14.1126000000000005   T   T   T
  1.9562889999999999  2.4374050000000000 11.7357289999999992   T   T   T
  9.6911590000000007  4.6326510000000001 12.7146760000000008   T   T   T
  4.2357329999999997  8.0763160000000003 11.8822189999999992   T   T   T
  2.2595410000000000  5.4975240000000003 14.2802260000000008   T   T   T
  7.5208872636546644  9.1148597130712954  7.9012247293508100   T   T   T
  1.6935230144008373  2.3862244371080581  1.3160654148748374   F   F   F
  7.0472305734970488  6.0232207474037214  3.3003459413423974   F   F   F
  1.2206455957626490  6.0232207474037214  3.3003459413423974   F   F   F
  7.5192318708390076  0.9772501393769297  3.3003459413423974   F   F   F
  9.9605230623642314  0.9772501393769296  3.3003459413423974   F   F   F
  1.6926468931046077  0.9772501393769297  3.3003459413423974   F   F   F
  4.6075948509180824  4.0688891187256768  7.9012242893538742   T   T   T
  4.1339380846298308  0.9772501393769296  3.3003459413423974   F   F   F
  9.9608728320776336  7.7038970062079093  5.9168608272145669   T   T   T
  7.5201079921352374  2.3862244371080581  1.3160654148748374   F   F   F
  1.2209953171189345  2.6579266984664107  5.9168606214479986   T   T   T
  7.0475803286718310  2.6579270100966017  5.9168606988059329   T   T   T
 10.4341794770548670  4.0688892318487317  7.9012241281602282   T   T   T
  1.6943022649829742  9.1148596632131671  7.9012246053091300   T   T   T
  4.1342878881655176  7.7038971309340436  5.9168607315921751   T   T   T
  9.9596469410679997  2.3862244371080585  1.3160654148748374   F   F   F
 10.4334004810024545  7.4321950451348497  1.3160654148748374   F   F   F
  4.6059393819718260  6.0232207474037214  3.3003459413423974   F   F   F
  9.9598410169661520  9.1131728660806903  7.9012242263108199   T   T   T
  4.1332565328658299  9.1131730369301476  7.9012245203183520   T   T   T
  7.0463544522008181  7.4321950451348506  1.3160654148748374   F   F   F
  1.2197694744664185  7.4321950451348506  1.3160654148748374   F   F   F
  4.1330619633336001  2.3862244371080585  1.3160654148748374   F   F   F
  5.8265849777344361  8.1374409372997452  3.3003459413423974   F   F   F
  0.0000000000000366  8.1374409372997452  3.3003459413423974   F   F   F
  8.7398774666016177  3.0914703292729544  3.3003459413423974   F   F   F
  2.9132924888672180  3.0914703292729544  3.3003459413423974   F   F   F
  1.6913339922525055  7.7055645439707234  5.9168608213343230   T   T   T
  7.5179191147876443  7.7055645157480370  5.9168606049829204   T   T   T
  4.6046268748341816  2.6595943875677244  5.9168608148673538   T   T   T
 10.4312114700813403  2.6595943919773890  5.9168609875075076   T   T   T
  2.9123188926982575  7.0018198459940919  7.9012244500088782   T   T   T
  8.7389036578320720  7.0018200451233303  7.9012244752973162   T   T   T
 -0.0009732204856874  1.9558498309164682  7.9012244680060055   T   T   T
  5.8256111014261327  1.9558497938654520  7.9012244401252865   T   T   T
  4.6068155032680558  7.4321950451348497  1.3160654148748374   F   F   F
 10.4325243597062247  6.0232207474037214  3.3003459413423974   F   F   F
  5.8265849777344378  5.3194923418374893  1.3160654148748374   F   F   F
  8.7398774666016177  0.2735217338106973  1.3160654148748374   F   F   F
  5.6680950000000001  3.3805939999999999 12.9302390000000003   T   T   T
  6.9735930000000002  1.1741340000000000 15.2949529999999996   T   T   T
  8.2315109999999994  8.5488400000000002 12.8769130000000001   T   T   T
  8.5624620000000000  6.4988640000000002 15.0169040000000003   T   T   T
  6.4647040000000002  8.6018889999999999 15.2783859999999994   T   T   T
  6.6122730000000001  6.8469280000000001 13.5744609999999994   T   T   T
  8.8935049999999993  8.9194600000000008 15.2070220000000003   T   T   T
  6.7879730000000000  3.6096439999999999 15.0978259999999995   T   T   T
  5.1548590000000001  8.9559770000000007 13.0420739999999995   T   T   T
  4.3066019999999998  6.3564439999999998 11.8527970000000007   T   T   T
  2.8980389999999998  8.0021000000000004 12.9985680000000006   T   T   T
  5.5734320000000004  8.1505369999999999 10.7658780000000007   T   T   T
  7.3813060000000004  6.2570300000000003 10.7967309999999994   T   T   T
  9.8890709999999995  1.1921889999999999 15.0427459999999993   T   T   T
  5.2805929999999996  1.2663590000000000 10.7575219999999998   T   T   T
 10.5049320000000002  8.4730609999999995 11.3236589999999993   T   T   T
  3.2457609999999999  8.9165489999999998 10.7518150000000006   T   T   T
  2.9132924888672185  0.2735217338106973  1.3160654148748374   F   F   F
  4.7652440000000000  1.5661110000000000 14.3077489999999994   T   T   T
  3.3368220000000002  4.1622459999999997 13.9677170000000004   T   T   T
  0.0000000000000379  5.3194923418374893  1.3160654148748374   F   F   F
  1.2199640734073285  4.0672024444201105  7.9012241968425698   T   T   T
 10.5205749999999991  4.5857760000000001 11.2067850000000000   T   T   T
  7.9700600000000001  4.6147260000000001 12.7513009999999998   T   T   T
 10.5828659999999992  4.6974499999999999 14.1859020000000005   T   T   T
  9.6716320000000007  6.3752269999999998 12.6497569999999993   T   T   T
  9.7106929999999991  2.8900760000000001 12.7795839999999998   T   T   T
  7.4093320000000000  1.6563270000000001 12.9321940000000009   T   T   T
  1.2366809999999999  1.2226509999999999 10.7506400000000006   T   T   T
  3.4885160000000002  3.0959819999999998 11.3086420000000007   T   T   T
  1.1630370000000001  3.6716880000000001 10.7931450000000009   T   T   T
  2.7495360000000000  1.2031140000000000 12.6783059999999992   T   T   T
  3.5663339999999999  6.3945569999999998 14.9521529999999991   T   T   T
  1.9125070000000000  5.6112970000000004 12.5978259999999995   T   T   T
  1.2998160000000001  4.4867400000000002 15.2907180000000000   T   T   T
  1.1822680000000001  6.8328080000000000 14.5927410000000002   T   T   T
  1.1436510000000000  2.9935489999999998 13.1478800000000007   T   T   T
  7.0465490411716383  4.0672024479506712  7.9012242012016758   T   T   T
  7.1343360000000002  3.1146419999999999 10.7766690000000001   T   T   T
  8.7408398231498605  9.8203904514596747  5.9168609467895505   T   T   T
  5.8275474935402247  4.7744203482567995  5.9168610163546180   T   T   T
  2.9142553330518330  9.8203906562064649  5.9168608537749767   T   T   T
  0.0009632795259079  4.7744203236886387  5.9168611703365288   T   T   T
  8.7392284049393609  0.6966058257652514  8.4216666305349079   T   T   T
 -0.0006488149116765  5.7425762270134353  8.4216664356198816   T   T   T
  5.8259360582765956  5.7425764784505020  8.4216661085290010   T   T   T
  0.8409352596514178  9.6064270175228081  0.5000000000000000   F   F   F
  6.6675202373858173  9.6064270175228081  0.5000000000000000   F   F   F
  3.7542277485186357  4.5604564094959974  0.5000000000000000   F   F   F
  9.5808127262530363  4.5604564094959974  0.5000000000000000   F   F   F
  2.9132924888672185  8.4099510133779987  2.4334301740582331   F   F   F
  8.7398774666016177  8.4099510133779987  2.4334301740582331   F   F   F
  7.9021626566180263  7.9262961423298357  3.8038507225754681   F   F   F
  5.8265849777344378  3.3639804053511888  2.4334301740582331   F   F   F
  7.8982764482709955  5.5318136411368659  5.2083018326922632   T   T   T
  8.7398774666016177  9.3772607554743246  3.8038507225754681   F   F   F
  0.0000000000000379  4.3312901474475138  3.8038507225754681   F   F   F
  5.8265849777344378  4.3312901474475138  3.8038507225754681   F   F   F
  4.9856497180830210  9.6064270175228099  0.5000000000000000   F   F   F
 10.8122346958174198  9.6064270175228099  0.5000000000000000   F   F   F
  2.0723572292158399  4.5604564094960001  0.5000000000000000   F   F   F
  7.8989422069502400  4.5604564094960001  0.5000000000000000   F   F   F
  2.9126436039775117  0.6966056765126879  8.4216666814387171   T   T   T
  0.0000000000000379  3.3639804053511888  2.4334301740582331   F   F   F
  9.5814298931841755  5.5318969740738604  5.2083023472791252   T   T   T
  0.0000000000000009  0.0000000000000000  1.8692122630551729   F   F   F
  9.7707960000000007  8.2100910000000002 10.7861600000000006   T   T   T
  4.9888701677508447  2.8803255343030250  3.8038507225754681   F   F   F
  5.1709750000000003  1.1312530000000001 11.6885130000000004   T   T   T
 10.8154551454852452  2.8803255343030250  3.8038507225754681   F   F   F
  9.4531340000000004  2.0114960000000002 15.2317149999999994   T   T   T
  3.7669849520521419  2.1741206569131366  8.4216662746942816   T   T   T
  6.6121910000000002  5.7043379999999999 10.7992570000000008   T   T   T
  9.5935706521161421  2.1741210060168616  8.4216668203107652   T   T   T
  0.8536927152551053  7.2200911457599934  8.4216665418377410   T   T   T
  6.6802773267618489  7.2200908336183351  8.4216662421889943   T   T   T
  2.9132924888672185  9.3772607554743246  3.8038507225754681   F   F   F
  7.8868341361889795  2.1752445897769235  8.4216662425889659   T   T   T
  4.9735414408608820  7.2212148782946493  8.4216663631570938   T   T   T
 10.8001261942254878  7.2212151395951940  8.4216666037639953   T   T   T
  2.9132926458170356  1.6819903291709069  7.0902827538356448   T   T   T
  8.7398775327428702  1.6819903952705664  7.0902831023540749   T   T   T
  0.0000001620276770  6.7279608492583440  7.0902829620716670   T   T   T
  5.8265849529275746  6.7279608104828901  7.0902827145300673   T   T   T
  2.0602486641446340  2.1752445975949120  8.4216665050248025   T   T   T
  3.7548449604330729  5.5318965201910508  5.2083024289033393   T   T   T
  6.6681374178885102  0.4859259476633768  5.2083022788423081   T   T   T
  0.8415525135371656  0.4859259209404380  5.2083024588877240   T   T   T
  0.0000479960411628  9.1201724095238976  5.2083020777098641   T   T   T
  6.6642997877180283  2.8803255343030250  3.8038507225754681   F   F   F
  0.8377148099836284  2.8803255343030250  3.8038507225754681   F   F   F
  9.5775922765852108  7.9262961423298357  3.8038507225754681   F   F   F
  3.7510072988508103  7.9262961423298357  3.8038507225754681   F   F   F
  5.8266329408636341  9.1201722272731836  5.2083020196932024   T   T   T
  2.9133405400311889  4.0742015325280505  5.2083022487616129   T   T   T
  2.9132924888672185  6.0169990050883788  0.5000000000000000   F   F   F
  8.7398774666016177  6.0169990050883788  0.5000000000000000   F   F   F
  5.8265849777344378  0.9710283970615677  0.5000000000000000   F   F   F
  4.9849844682517830  0.4858431895731812  5.2083023093017635   T   T   T
 10.8115689744664234  0.4858434578002372  5.2083020975831564   T   T   T
  2.0716921617775825  5.5318134475781218  5.2083021150250630   T   T   T
  2.0755776788836262  7.9262961423298357  3.8038507225754681   F   F   F
  0.0000000000000379  0.9710283970615677  0.5000000000000000   F   F   F
  8.7398772694281970  5.0459704750830259  6.5756554312920175   T   T   T
  2.9132923010169791  5.0459706910831974  6.5756552703092535   T   T   T
  5.8265850794823608 -0.0000000862492276  6.5756550147276478   T   T   T
  0.0000000254469637 -0.0000001127450282  6.5756553358078769   T   T   T
  8.7398774666016177  5.0459706080267921  1.8692122630551729   F   F   F
  2.9132924888672185  5.0459706080267921  1.8692122630551729   F   F   F
  5.8265849777344005  0.0000000000000000  1.8692122630551729   F   F   F
  8.0638640000000006  2.9358140000000001 10.7448680000000003   T   T   T
  8.7399253226070517  4.0742019402551044  5.2083022337151963   T   T   T
  5.8265851802936366  0.0000004171864252  5.5474076655965199   T   T   T
  2.9132927689320338  5.0459709458728996  5.5474077299987918   T   T   T
  8.7398772032723286  5.0459699971640788  5.5474076088187738   T   T   T
  8.7398774666016177  8.4099510133779987  3.4597557168440631   F   F   F
  5.8265849777344005  0.0000000000000000  0.8425449303043502   F   F   F
  2.9132924888672185  5.0459706080267921  0.8425449303043502   F   F   F
  8.7398774666016177  5.0459706080267921  0.8425449303043502   F   F   F
  5.8265849777344378  3.3639804053511888  3.4597557168440631   F   F   F
  0.0000000000000009  0.0000000000000000  0.8425449303043502   F   F   F
  0.0000000000000379  3.3639804053511888  3.4597557168440631   F   F   F
  2.9132928596650562  1.6819903776035174  8.1208779405408524   T   T   T
  8.7398761494698256  1.6819899152532762  8.1208778942279700   T   T   T
  0.0000000999011021  6.7279604904640715  8.1208777185143664   T   T   T
  0.0000009445549226 -0.0000003366995575  5.5474074882977620   T   T   T
  2.9132924888672185  8.4099510133779987  3.4597557168440631   F   F   F
  5.8265852155321820  6.7279605003343708  8.1208782477315893   T   T   T
  8.7398774666016177  1.6819902026756042  2.3016856341631255   F   F   F
  5.8265847955866708  3.3639803342120240  6.9203423407150630   T   T   T
  0.0000003207652417  3.3639805527349531  6.9203424096375628   T   T   T
  8.7398776840396071  8.4099509470817555  6.9203422459342265   T   T   T
  2.9132923840722675  8.4099509352379691  6.9203423128524229   T   T   T
  2.9132924888672185  1.6819902026756042  2.3016856341631255   F   F   F
  5.8265849777344378  6.7279608107023954  2.3016856341631255   F   F   F
  0.0000000000000379  6.7279608107023954  2.3016856341631255   F   F   F
