H  O  F  Si P 
 1.0000000000000000
     9.8224603672816997    0.0000000000000000    0.0000000000000000
    -4.9112301836409040    8.5195690981523047    0.0000000000000000
     0.0000000000000583    0.0360251379324295   26.9999796582416955
 H   O   F   Si  P  
  16  48   3  20   1
Selective dynamics
Cartesian
  2.7977769935297903  6.0131494488380381  0.6892279876741672   F   F   F
  7.7090071771706619  2.5086273834089625  0.0979647184448247   F   F   F
  3.7522817003368658  6.0841652028701798 10.4494915474580381   T   T   T
  0.3421619017093552  6.7684119324850922  0.0979647184448536   F   F   F
  2.7977769935297974  2.5086273834089519  0.0979647184448361   F   F   F
  5.2533920853502361  1.7533648997618962  0.6892279876741498   F   F   F
 -2.1134531901110734  6.0131494488380266  0.6892279876741785   F   F   F
  1.2428151805792398  1.7839952568438679 10.4831685213675083   T   T   T
  0.3421619017093678  1.7533648997618856  0.6892279876741612   F   F   F
  6.2438291832182022  1.8302793031132190 10.3840056475784603   T   T   T
  6.8065079252126139  4.0258092705370201 10.5277932599148265   T   T   T
 -0.5919420809387412  8.2294203764804319 10.5345633786181985   T   T   T
  1.8672009015131523  3.9599537497414148 10.5513383378521599   T   T   T
  5.2533920853502183  6.7684119324851029  0.0979647184448421   F   F   F
  4.3657047968647955  8.2665482021981216 10.5229348518854202   T   T   T
 -1.2111378593769755  6.0456641011991703 10.4626925944745057   T   T   T
  0.6152052956547349  4.8163099824586180  8.3061044610528114   T   T   T
  8.1406389722059345  0.5918899998529168  2.9198781769704119   F   F   F
  7.9937692791770925  0.5402840093967747  8.2670664885030671   T   T   T
  0.7737936967446194  4.8516745489290471  2.9198781769704407   F   F   F
  5.6386261136556382  3.6872558780134708  5.3211896806430063   T   T   T
  0.2566268685934555  1.7082728514847769  7.0702754075362444   T   T   T
  5.6850238803854856  4.8516745489290605  2.9198781769704287   F   F   F
 -1.4529857257595318  7.7589789940064842 10.5683286749775771   T   T   T
  1.3467669797371633  1.1800838200642709  4.7340924848546981   T   T   T
  5.5286020801349292  4.8144645616767283  8.2663925804432914   T   T   T
  3.7221188474391624  5.0925466196190099 10.3716788013801331   T   T   T
  3.2294087885650606  0.5918899998529064  2.9198781769704234   F   F   F
 -1.2278963528386000  5.0546498531142321 10.3751532030735856   T   T   T
  6.2496950176557942  1.1833409178736218  4.7278460025763289   T   T   T
  6.2071949102605579  0.8377164881424051 10.3685945492929736   T   T   T
  3.7965528433666464  5.4419300623987832  4.7328782251686494   T   T   T
  3.0754127220618579  0.5623060645471845  8.3122414146144070   T   T   T
 -2.2052453003975159  5.9710000043033231  7.0686388454042133   T   T   T
  3.1794578547323065  7.9479647539010534  5.3191595302124925   T   T   T
  0.7374835289802365  3.6868523101532804  5.3162141087482366   T   T   T
  5.2533920853502227  6.7692232581571625  1.0979643893201148   F   F   F
 -1.1060106301501322  5.4410540494219717  4.7358043984631486   T   T   T
  7.6160449811558220  2.5634395956732368  6.6056202312099472   T   T   T
  7.7090071771706645  2.5094387090810217  1.0979643893200972   F   F   F
  2.7977769935297907  6.0139607745100943  1.6892276585494399   F   F   F
 -2.1134531901110751  6.0139607745100871  1.6892276585494512   F   F   F
  5.9493060271522547  3.5406899637713423 10.5491048015315307   T   T   T
  3.8547872675368371  2.9179489799740819  9.0315425724656659   T   T   T
  5.1570748871511105  6.8393381533957793  6.6052104372520519   T   T   T
  1.3399007851670373  7.3638012514587210  3.4881581416814376   F   F   F
  3.7955158769874759  3.1040167023825798  3.4881581416814202   F   F   F
  3.5122663904616025  7.7752971720483757 10.5395939769994200   T   T   T
 -3.5713293984738357  7.3638012514587095  3.4881581416814496   F   F   F
 -1.0700042445422804  2.8961305916925935  9.0295087938528500   T   T   T
 -1.1157143066533917  3.1040167023825673  3.4881581416814322   F   F   F
  1.2082656033032309  0.7963277054873221 10.3675021795159310   T   T   T
 -3.5253619272118937  7.1641758606034234  9.0293935918887360   T   T   T
  1.3992956260000022  7.1687705328964091  9.0450838970980350   T   T   T
  5.1616880857402041  1.7000525261190271  7.0718899845499754   T   T   T
  1.0054234017276245  3.4912187111313222 10.5636505518929980   T   T   T
  0.2492364133098642  6.8303069858696501  6.6233330895050981   T   T   T
  0.3421619017093551  6.7692232581571501  1.0979643893201259   F   F   F
  2.7085626498585684  2.5658310151392913  6.6140581446889115   T   T   T
  2.7977769935297956  2.5094387090810093  1.0979643893201088   F   F   F
  2.7045508834860654  5.9631648075034880  7.0749487988209845   T   T   T
  0.3421619017093689  1.7541762254339426  1.6892276585494339   F   F   F
  5.2533920853502325  1.7541762254339530  1.6892276585494224   F   F   F
 -1.7173450853016816  7.9476579979769655  5.3158140981478406   T   T   T
  3.7382412740449396  1.5851362748134055 14.1827397710303327   T   T   T
  3.5070002557848685  2.2633434900738574 11.9595335068934610   T   T   T
  4.0888867123056034  3.8206120884112376 13.6150546725140753   T   T   T
  3.7674974994221619  1.9920217675489305  2.2994260662927406   F   F   F
 -3.6678580907685485  6.2081367374668970  7.7198129017065442   T   T   T
 -3.5993477760391452  6.2518063166250659  2.2994260662927695   F   F   F
 -1.2072898626705759  1.9352115876741727  7.7205420146775374   T   T   T
 -1.1437326842187019  1.9920217675489200  2.2994260662927508   F   F   F
  4.7689188062404728  4.1602516639721712  9.5498156619669672   T   T   T
  7.1874705345060024  0.0166909406973565  4.0911129392145922   T   T   T
  1.2628054447304811  2.2804709510331254  5.9185542694100173   T   T   T
 -0.1540732317139821  4.1306538944067448  9.5702660434657325   T   T   T
 -0.1741308283762169  4.2730696888345738  4.0929299210536652   T   T   T
  2.2960566304293732 -0.1176327795338580  9.5735486133679313   T   T   T
  2.2810767507240106  0.0135623770320446  4.0928289476281261   T   T   T
  3.7078398986177725  6.5415427656013545  5.9194998760330932   T   T   T
  6.1657089104007747  2.2783268763088245  5.9181336703967791   T   T   T
  3.7037945890340920  1.9429501988714584  7.7355437882783100   T   T   T
  1.3118824076017215  6.2518063166250721  2.2994260662927579   F   F   F
  1.2459078572756896  6.2010006663105042  7.7407558965967089   T   T   T
  4.7336911658703098  4.2753452303803154  4.0931757537380724   T   T   T
  7.2483011110519175 -0.1196476958894761  9.5572048077355927   T   T   T
 -1.1932649227008960  6.5414204876616395  5.9206907345270130   T   T   T
  4.5916956390468942  2.4009288754680163 13.1196381704522302   T   T   T
