H  N  F  Si
 1.0000000000000000
    11.6535095964131994    0.0000000000000000    0.0000000000000000
     0.0000000000000000   10.0922353537395004    0.0000000000000000
     0.0000000000000000    0.0000000000000000   30.0000000000000000
 H   N   F   Si 
  64  16  48   8
Selective dynamics
Cartesian
  0.8401031720320707  0.4853004740782697  5.2204219091168280   T   T   T
  7.9012122324956344  7.9258454606021980  3.8043095294545042   F   F   F
  4.9878348333923128  2.8797277837324491  3.8043095294545042   F   F   F
 10.8145896315989134  2.8797277837324491  3.8043095294545042   F   F   F
  3.7681347564098782  2.1694096066121862  8.3908767417594294   T   T   T
  9.5948893343411381  2.1694095885066029  8.3908767820766723   T   T   T
  0.8547571797276986  7.2155274811530310  8.3908768659854260   T   T   T
  6.6815117445019636  7.2155274051460498  8.3908766931086465   T   T   T
  2.9133773991032781  9.3788974631443622  3.8043095294545042   F   F   F
  7.8906786396921653  2.1785948989366024  8.3908768649343486   T   T   T
  4.9773009998283548  7.2247130074541364  8.3908767128930588   T   T   T
 10.8040558440502821  7.2247130148629797  8.3908769476879730   T   T   T
  2.9133774123487273  1.6820390242301473  7.0551120553115849   T   T   T
  8.7401319231671035  1.6820390857632066  7.0551117861017119   T   T   T
  0.0000001198070891  6.7281568141023067  7.0551118729028000   T   T   T
  5.8267547785316802  6.7281564719096290  7.0551119205030366   T   T   T
  2.0639238105627244  2.1785952447092112  8.3908769008618442   T   T   T
  6.6668577815975256  0.4853005236014463  5.2204217268716029   T   T   T
  3.7534803763357307  5.5314182425225553  5.2204218478528395   T   T   T
  9.5802350228079920  5.5314183119227884  5.2204216923614863   T   T   T
  2.9080742302066898  0.6981127745108242  8.3908768997136516   T   T   T
  8.7348289846702443  0.6981123983580120  8.3908767931537316   T   T   T
 -0.0053034822140215  5.7442304646174591  8.3908770592895241   T   T   T
  5.8214516063067236  5.7442304776705582  8.3908770560358175   T   T   T
  0.8412563922912988  9.6065357491926271  0.5000000000000000   F   F   F
  6.6680111904978983  9.6065357491926271  0.5000000000000000   F   F   F
  3.7546337913945766  4.5604180723228787  0.5000000000000000   F   F   F
  9.5813885896011755  4.5604180723228787  0.5000000000000000   F   F   F
  2.9133773991032781  8.4101961281162527  2.4321633756321481   F   F   F
  8.7401321973098778  8.4101961281162527  2.4321633756321481   F   F   F
 -0.0000000000000436  3.3640784512465056  2.4321633756321481   F   F   F
  5.8267547982065562  3.3640784512465056  2.4321633756321481   F   F   F
  7.8997979214591671  5.5310181007560475  5.2204220763887363   T   T   T
  8.7401321973098778  9.3788974631443622  3.8043095294545042   F   F   F
 -0.0000000000000436  4.3327797862746138  3.8043095294545042   F   F   F
  5.8267547982065562  4.3327797862746138  3.8043095294545042   F   F   F
  4.9854984059152585  9.6065357491926289  0.5000000000000000   F   F   F
 10.8122532041218591  9.6065357491926289  0.5000000000000000   F   F   F
  2.0721210068119369  4.5604180723228804  0.5000000000000000   F   F   F
  7.8988758050185366  4.5604180723228804  0.5000000000000000   F   F   F
  0.0000000000000009  0.0000000000000000  1.8667589503465760   F   F   F
  5.8267547982066006  0.0000000000000000  1.8667589503465760   F   F   F
  2.9133773991032790  5.0461176768697538  1.8667589503465760   F   F   F
  8.7401321973098796  5.0461176768697538  1.8667589503465760   F   F   F
  0.0000003167184836 -0.0000004055233019  6.5934033405973675   T   T   T
  5.8267548901571686  0.0000003865980886  6.5934035860506883   T   T   T
  2.9133772362225128  5.0461176533220282  6.5934029912391603   T   T   T
  8.7401321444380979  5.0461176444692990  6.5934033341026348   T   T   T
  8.7403631332477243  4.0759169889148090  5.2204218642559432   T   T   T
  2.0744574342890347  7.9258454606021980  3.8043095294545042   F   F   F
  2.0730432537386161  5.5310182279262969  5.2204216831694410   T   T   T
 10.8131752329344408  0.4849005597433395  5.2204221295472903   T   T   T
  4.9864206582618840  0.4849003005302229  5.2204221520064689   T   T   T
  5.8267547982065562  0.9713992090937540  0.5000000000000000   F   F   F
 -0.0000000000000436  0.9713992090937540  0.5000000000000000   F   F   F
  8.7401321973098778  6.0175168859635022  0.5000000000000000   F   F   F
  2.9133773991032781  6.0175168859635022  0.5000000000000000   F   F   F
  2.9136083247134876  4.0759169765081431  5.2204217152063626   T   T   T
  0.0002308675007448  9.1220347820547243  5.2204215723784095   T   T   T
  5.8269856455559328  9.1220345836406054  5.2204221045751806   T   T   T
  3.7522973639175210  7.9258454606021980  3.8043095294545042   F   F   F
  9.5790521621241211  7.9258454606021980  3.8043095294545042   F   F   F
  0.8389199648141999  2.8797277837324504  3.8043095294545042   F   F   F
  6.6656747630207995  2.8797277837324504  3.8043095294545042   F   F   F
  0.0000000000000009  0.0000000000000000  0.8416304243563442   F   F   F
  2.9133773991032781  8.4101961281162527  3.4593945362622507   F   F   F
  8.7401321973098796  5.0461176768697538  0.8416304243563442   F   F   F
  2.9133773991032790  5.0461176768697538  0.8416304243563442   F   F   F
  5.8267547982066006  0.0000000000000000  0.8416304243563442   F   F   F
  8.7401321973098778  8.4101961281162527  3.4593945362622507   F   F   F
  8.7401318964435717  5.0461179211241607  5.5634938953977420   T   T   T
  2.9133773312271174  5.0461176923655033  5.5634944517946332   T   T   T
  5.8267545340141895  0.0000000680897011  5.5634939833401029   T   T   T
  0.0000000182374697 -0.0000005423243933  5.5634944740157426   T   T   T
  5.8267551965121820  6.7281567457068245  8.0841743217812585   T   T   T
  0.0000001725732239  6.7281567089253986  8.0841741649436365   T   T   T
  8.7401316576957413  1.6820392094888514  8.0841743112808562   T   T   T
  2.9133775744403159  1.6820388720922383  8.0841743276055045   T   T   T
  5.8267547982065562  3.3640784512465056  3.4593945362622507   F   F   F
 -0.0000000000000436  3.3640784512465056  3.4593945362622507   F   F   F
  5.8255705118919989  4.7721453462249261  5.9183368756902777   T   T   T
 -0.0011847303328574  4.7721455395043302  5.9183374060589733   T   T   T
  8.7389478314163611  9.8182632064056268  5.9183369503326562   T   T   T
  2.9121933345736046  9.8182629625690385  5.9183369761112949   T   T   T
  7.0480202876574882  4.0694166412289210  7.9060477440001602   T   T   T
  1.2212655767749392  4.0694167744025682  7.9060477817234123   T   T   T
  9.9613974593423436  9.1155344678932995  7.9060478399168170   T   T   T
  4.1346430135120000  9.1155343591188718  7.9060476356906131   T   T   T
  7.0455803710100859  7.4318461750463234  1.3166483637921624   F   F   F
  1.2188255728034860  7.4318461750463234  1.3166483637921624   F   F   F
  9.9589577701134075  2.3857284981765692  1.3166483637921624   F   F   F
  4.1322029719068079  2.3857284981765692  1.3166483637921624   F   F   F
  5.8267547982065562  8.1378756805668004  3.3010724808649616   F   F   F
 -0.0000000000000436  8.1378756805668004  3.3010724808649616   F   F   F
  8.7401321973098778  3.0917580036970467  3.3010724808649616   F   F   F
  2.9133773991032776  3.0917580036970467  3.3010724808649616   F   F   F
  1.6945480308605883  7.7051369465133641  5.9183368054580408   T   T   T
  7.5213026669446998  7.7051372127836704  5.9183368921010286   T   T   T
  4.6079253811446437  2.6590193681269150  5.9183364722454197   T   T   T
 10.4346800660533514  2.6590193141063350  5.9183369912950967   T   T   T
  2.9135855205545624  6.9998801016948606  7.9060480949366010   T   T   T
  8.7403401193294368  6.9998803457426177  7.9060480354357647   T   T   T
  0.0002081698243949  1.9537624616230331  7.9060479381278990   T   T   T
  5.8269625793053814  1.9537622453559484  7.9060476640741566   T   T   T
 10.4346840236096270  7.4318461750463234  1.3166483637921624   F   F   F
  4.6079292254030264  7.4318461750463234  1.3166483637921624   F   F   F
  7.5213066245063480  2.3857284981765683  1.3166483637921624   F   F   F
  1.6945518262997479  2.3857284981765683  1.3166483637921624   F   F   F
  7.0476070722104200  6.0232975134561082  3.3010724808649616   F   F   F
  1.2208522740038208  6.0232975134561082  3.3010724808649616   F   F   F
  9.9609844713137434  0.9771798365863533  3.3010724808649616   F   F   F
  4.1342296731071428  0.9771798365863533  3.3010724808649616   F   F   F
  4.1333911840798443  7.7071883457370198  5.9183368773564293   T   T   T
  9.9601457372746296  7.7071885838345455  5.9183368868992678   T   T   T
  1.2200137948209397  2.6610710763461380  5.9183369301961966   T   T   T
  7.0467687226688867  2.6610707841647394  5.9183368549044113   T   T   T
  1.6919037378663029  9.1151739560236464  7.9060476253124676   T   T   T
  7.5186583518142394  9.1151743086014392  7.9060476696987863   T   T   T
  4.6052810093949921  4.0690562695319201  7.9060475033467732   T   T   T
 10.4320358013972196  4.0690562547317422  7.9060480459883653   T   T   T
  1.6925251250994147  0.9771798365863532  3.3010724808649616   F   F   F
  7.5192799233060139  0.9771798365863532  3.3010724808649616   F   F   F
  4.6059025242026914  6.0232975134561082  3.3010724808649616   F   F   F
 10.4326573224092911  6.0232975134561082  3.3010724808649616   F   F   F
  2.9133773991032781  0.2746606805166148  1.3166483637921624   F   F   F
  8.7401321973098778  0.2746606805166148  1.3166483637921624   F   F   F
 -0.0000000000000436  5.3207783573863692  1.3166483637921624   F   F   F
  5.8267547982065562  5.3207783573863692  1.3166483637921624   F   F   F
  5.8267548003794545  3.3640784061052442  6.9263598301493188   T   T   T
  0.0000000673131043  3.3640785041950734  6.9263602092570595   T   T   T
  8.7401319824282275  8.4101965349263317  6.9263600465261534   T   T   T
  2.9133775756599705  8.4101962188154502  6.9263599518520653   T   T   T
  5.8267547982065562  6.7281569024930041  2.2987940834959804   F   F   F
 -0.0000000000000436  6.7281569024930041  2.2987940834959804   F   F   F
  8.7401321973098778  1.6820392256232506  2.2987940834959804   F   F   F
  2.9133773991032781  1.6820392256232506  2.2987940834959804   F   F   F
