H  N  F  Si I 
 1.0000000000000000
    11.6531699554687993    0.0000000000000000    0.0000000000000000
     0.0000000000000000   10.0919412160536002    0.0000000000000000
     0.0000000000000000    0.0000000000000000   30.0000000000000000
 H   N   F   Si  I  
  65  16  54   8   1
Selective dynamics
Cartesian
  3.7542277485186357  4.5604564094959974  0.5000000000000000   F   F   F
  8.7398774666016177  6.0169990050883788  0.5000000000000000   F   F   F
  0.8377148099836284  2.8803255343030250  3.8038507225754685   F   F   F
  8.7398774666016177  5.0459706080267921  1.8692122630551729   F   F   F
  0.0000000000000379  0.9710283970615677  0.5000000000000000   F   F   F
  5.8265849777344005  0.0000000000000000  1.8692122630551729   F   F   F
  8.8638581622094552  4.0008694828783273 12.5524893140041698   T   T   T
  8.7398774666016177  8.4099510133779987  2.4334301740582331   F   F   F
  4.9888701677508447  2.8803255343030250  3.8038507225754685   F   F   F
 10.9848682037211667  7.4739917684721009  8.6156293198981508   T   T   T
  9.5808127262530363  4.5604564094959974  0.5000000000000000   F   F   F
  2.9132924888672185  8.4099510133779987  2.4334301740582331   F   F   F
  6.2771598447656984  9.1267610228081555  5.8249468718175681   T   T   T
  6.6642997877180274  2.8803255343030250  3.8038507225754685   F   F   F
  3.3044890661650332  0.6588729509006045  8.4408934486315097   T   T   T
  9.5775922765852108  7.9262961423298357  3.8038507225754685   F   F   F
  5.8265849777344370  0.9710283970615677  0.5000000000000000   F   F   F
  4.8095907472359247 -0.1298588548730599  5.6021004061178994   T   T   T
  4.6082129740878406  6.9678796746969089  8.7329287597761969   T   T   T
 10.8154551454852452  2.8803255343030250  3.8038507225754685   F   F   F
  1.9322275072788162  1.6792345857608173  8.5035952935373054   T   T   T
  6.2308807245812732  7.4774835916781468  8.7189795130773717   T   T   T
  5.7631285889603303  6.0590321979572197  7.9388770672634834   T   T   T
 -0.0140609611198762  6.8189072247789433  7.2477823660324265   T   T   T
  0.3941877057307236 -0.4280107886068177  6.5241959463192858   T   T   T
  3.2825955653458707  2.1153660807281831  7.6058556178896959   T   T   T
  3.3862791851647542  2.1341931109564038  9.2674257051352278   T   T   T
  8.4971127938666147  1.2006461873915146  9.5962438819866769   T   T   T
  8.4970676327203645  2.5003426268517539  8.5259646163881850   T   T   T
  2.9132924888672185  9.3772607554743246  3.8038507225754685   F   F   F
  8.2698853043160110  5.4756114621433296  4.8755952564795813   T   T   T
  5.8265849777344370  3.3639804053511888  2.4334301740582331   F   F   F
  0.0000000000000379  3.3639804053511888  2.4334301740582331   F   F   F
  2.9132924888672185  5.0459706080267921  1.8692122630551729   F   F   F
  0.0398124525432614  9.4863446656224113  4.8869360540427893   T   T   T
  0.0000000000000009  0.0000000000000000  1.8692122630551729   F   F   F
  3.5189525331622038  5.8972272703114408  5.8756454972244896   T   T   T
  7.9021626566180254  7.9262961423298357  3.8038507225754685   F   F   F
 -0.4714091768734902  5.7686895522235524  8.4604407778162400   T   T   T
  5.7463494439341085  6.0943531075541140  9.6190759834154278   T   T   T
  0.8409352596514178  9.6064270175228081  0.5000000000000000   F   F   F
  6.6675202373858173  9.6064270175228081  0.5000000000000000   F   F   F
  2.9132924888672185  6.0169990050883788  0.5000000000000000   F   F   F
  0.3650442837214695  0.9293323744674873  5.5585974710325869   T   T   T
  3.7510072988508103  7.9262961423298357  3.8038507225754685   F   F   F
 10.5744561418362473  0.1222458369906599  5.9104205978660618   T   T   T
  9.9603853635618016  1.7554922936982467  8.9086512513999168   T   T   T
 10.8122346958174198  9.6064270175228099  0.5000000000000000   F   F   F
  2.0723572292158399  4.5604564094960001  0.5000000000000000   F   F   F
  7.8989422069502391  4.5604564094960001  0.5000000000000000   F   F   F
  0.9092593875696074  6.7770346126762488  8.6145158666653092   T   T   T
  8.3148224522198433  4.0640360275140770  5.7768564410050454   T   T   T
  2.0755776788836262  7.9262961423298357  3.8038507225754685   F   F   F
  3.5358902243381936  4.2310815233142254  5.5552694710046362   T   T   T
  2.3195830478819857  4.8708307446180914  6.4970442095414747   T   T   T
  8.5139328487158572  5.5593937696412787  6.5437543352269829   T   T   T
  6.0141351850747311  0.5383553700787063  6.5559784323443306   T   T   T
  4.9856497180830210  9.6064270175228099  0.5000000000000000   F   F   F
  2.3618642479173415  5.2414415745475518  4.8527699534404709   T   T   T
  9.7357556683813886  4.9548166681874042  5.5681013289038113   T   T   T
  8.8304551524124619  0.9419304625541830  7.9631139011828411   T   T   T
  6.2484039586025606  0.4277055684682857  4.8909389352975845   T   T   T
  8.7398774666016177  9.3772607554743246  3.8038507225754685   F   F   F
  0.0000000000000379  4.3312901474475138  3.8038507225754685   F   F   F
  5.8265849777344370  4.3312901474475138  3.8038507225754685   F   F   F
  2.9375631973770595  5.0602948089810225  5.6850970315768627   T   T   T
 -0.0607548572376907  6.7058772070929189  8.2707434294123967   T   T   T
  0.0000000000000009  0.0000000000000000  0.8425449303043500   F   F   F
  5.8265849777344370  3.3639804053511888  3.4597557168440631   F   F   F
  5.5916156117836531  6.6568476384817163  8.7676240401215786   T   T   T
  2.9132924888672185  8.4099510133779987  3.4597557168440631   F   F   F
  8.9517897081509759  1.5979027101070873  8.7636884225793565   T   T   T
  8.7104555700390520  5.0137002796411165  5.6805296895381101   T   T   T
 -0.0744750347503621  0.0040209016747730  5.7068386449966910   T   T   T
  8.7398774666016177  8.4099510133779987  3.4597557168440631   F   F   F
  5.8265849777344005  0.0000000000000000  0.8425449303043500   F   F   F
  2.9674862011758414  1.6436436190380257  8.4649308868365338   T   T   T
  2.9132924888672185  5.0459706080267921  0.8425449303043500   F   F   F
  8.7398774666016177  5.0459706080267921  0.8425449303043500   F   F   F
  5.8329617403200062 -0.0334048061510427  5.7097015721228130   T   T   T
  0.0000000000000379  3.3639804053511888  3.4597557168440631   F   F   F
  7.0472305734970480  6.0232207474037214  3.3003459413423974   F   F   F
  1.6935230144008373  2.3862244371080581  1.3160654148748374   F   F   F
  8.7398774666016177  3.0914703292729544  3.3003459413423974   F   F   F
  2.9132924888672180  3.0914703292729544  3.3003459413423974   F   F   F
  0.0000000000000366  8.1374409372997452  3.3003459413423974   F   F   F
  7.5018860920807118  7.9013676417101397  6.0247023926955370   T   T   T
  9.9605230623642314  0.9772501393769296  3.3003459413423974   F   F   F
  9.4240563996178928  4.1872185717700345 13.2998699805754779   T   T   T
  0.0000000000000379  5.3194923418374893  1.3160654148748374   F   F   F
  6.1006966808575136  2.9395648415628068 12.7876369114172999   T   T   T
 10.6254341277408439  4.1553052659278666  8.2640704570115862   T   T   T
  4.1339380846298308  0.9772501393769296  3.3003459413423974   F   F   F
  4.1084998911505073  7.5541274873565820  6.3241342743845408   T   T   T
  9.9076522995215228  7.8169341534503101  6.2219906823207314   T   T   T
  1.0521978564570271  2.5385025737433504  6.0494808283909265   T   T   T
  1.2197694744664185  7.4321950451348506  1.3160654148748374   F   F   F
  8.7398774666016177  0.2735217338106973  1.3160654148748374   F   F   F
  4.1330619633336001  2.3862244371080585  1.3160654148748374   F   F   F
  3.9479416411365569  9.1767110145487703  8.1611141202819724   T   T   T
  8.0407744906447469  3.7325014380002508 11.2478970073049940   T   T   T
  1.5220065761256871  9.2189931989796605  7.8636293608399326   T   T   T
  4.8368965340459269  3.8266975710767226  8.3835841439751402   T   T   T
  4.6059393819718260  6.0232207474037214  3.3003459413423974   F   F   F
  7.5192318708390076  0.9772501393769297  3.3003459413423974   F   F   F
 10.3164772958818958  2.5820259276522308  6.4308078216050975   T   T   T
  9.7613008516045188  8.7124658891272873  8.4984551633273409   T   T   T
  7.5201079921352374  2.3862244371080581  1.3160654148748374   F   F   F
  5.8265849777344370  5.3194923418374893  1.3160654148748374   F   F   F
  4.3720579937963349  2.3261943949813326 10.9666050194992355   T   T   T
  5.5640817841995807  4.9236393447110807 11.1574537988607396   T   T   T
  6.9825099618271835  1.2651559762812608 10.9719768409021938   T   T   T
  7.3432881153957981  8.7789974513514135  8.2745058777627509   T   T   T
  8.5284822533749605  6.6890496560038706  7.8710756937702442   T   T   T
  5.8889656059157209  4.8725422291221587  6.4771123871437188   T   T   T
  4.5941789579325523  2.8190148166323445  6.1763888976171080   T   T   T
  8.7574187758865012  9.9118089173993713  6.6370198265162843   T   T   T
  1.3691246013629366  4.1337985855690844  7.8220436607513379   T   T   T
  7.2553244236102774  3.7815593065601214  8.1777437403658162   T   T   T
  3.0165092688302098  9.6967603837727214  5.9935593191445786   T   T   T
  1.2206455957626490  6.0232207474037214  3.3003459413423974   F   F   F
  2.9132924888672185  0.2735217338106973  1.3160654148748374   F   F   F
  5.9666028402520945  1.7424838432556760  7.8800907963381066   T   T   T
  9.9596469410679997  2.3862244371080585  1.3160654148748374   F   F   F
  7.0463544522008181  7.4321950451348506  1.3160654148748374   F   F   F
 10.4325243597062247  6.0232207474037214  3.3003459413423974   F   F   F
  1.6926468931046077  0.9772501393769297  3.3003459413423974   F   F   F
  2.7165461518707166  7.1094824468792153  8.2605089734374921   T   T   T
 -0.1669006347559887  4.6673027092718877  6.0302710385684568   T   T   T
  4.6068155032680558  7.4321950451348497  1.3160654148748374   F   F   F
  5.8265849777344361  8.1374409372997452  3.3003459413423974   F   F   F
  0.1655882949346043  2.0459669413455224  8.2825299109378925   T   T   T
 10.4334004810024528  7.4321950451348497  1.3160654148748374   F   F   F
  1.7016680633331080  7.6293439979212634  6.0787585547399674   T   T   T
  7.0259097847911836  2.7851529230340613  5.9667545554684764   T   T   T
  8.6368363985340064  8.2890795831329314  7.2723752777369040   T   T   T
  2.8308867914255416  8.4000905335353178  7.1144982962049639   T   T   T
  5.9273010019488206  3.3098935667814753  7.1757577713834007   T   T   T
 -0.0037296098664047  3.3474395098644072  7.1519778018915048   T   T   T
  0.0000000000000379  6.7279608107023954  2.3016856341631255   F   F   F
  8.7398774666016177  1.6819902026756042  2.3016856341631255   F   F   F
  5.8265849777344370  6.7279608107023954  2.3016856341631255   F   F   F
  2.9132924888672185  1.6819902026756042  2.3016856341631255   F   F   F
  6.1961667348701841  3.0659440823985982 10.9189156741831361   T   T   T
