# (written by ASE)
clear
variable dump_file string "/data2/andynn/LowTempEtch/07_Equil_LayerThickness/01_genCell/inputs/test/relax_test/test/debug/trj_lammps000036lb1st30y.bin"
variable data_file string "/data2/andynn/LowTempEtch/07_Equil_LayerThickness/01_genCell/inputs/test/relax_test/test/debug/data_lammps000036f9255vdb"
atom_style atomic 
units metal
boundary p p f 
box tilt large 
atom_modify sort 0 0.0 

read_data /data2/andynn/LowTempEtch/07_Equil_LayerThickness/01_genCell/inputs/test/relax_test/test/debug/data_lammps000036f9255vdb

### interactions
pair_style d3 9000 1600 d3_damp_bj 
pair_coeff * * /data2/andynn/lammps_d3/13_rewrite_csv/r0ab_new.csv /data2/andynn/lammps_d3/13_rewrite_csv/d3_pars.csv pbe H N F Si 
mass 1 1.008000 
mass 2 14.007000 
mass 3 18.998403 
mass 4 28.085000 

### run
fix fix_nve all nve
dump dump_all all custom 1 /data2/andynn/LowTempEtch/07_Equil_LayerThickness/01_genCell/inputs/test/relax_test/test/debug/trj_lammps000036lb1st30y.bin id type x y z vx vy vz fx fy fz
thermo_style custom step temp press cpu pxx pyy pzz pxy pxz pyz ke pe etotal vol lx ly lz atoms
thermo_modify flush yes format float %23.16g
thermo 1
run 0
print "__end_of_ase_invoked_calculation__" 
log /dev/stdout
