H  N  F  Si I 
 1.0000000000000000
    11.6531699554687993    0.0000000000000000    0.0000000000000000
     0.0000000000000000   10.0919412160536002    0.0000000000000000
     0.0000000000000000    0.0000000000000000   41.9057279999999963
 H   N   F   Si  I  
  84  16 103   8   7
Selective dynamics
Cartesian
 10.5120652862657078  1.9137265764593703  8.0353876273295057   T   T   T
  6.4088778899728371  2.0120322647562183 20.2636598255573830   T   T   T
  3.7765810000000002  9.6227499999999999  3.3038510000000003   F   F   F
 -1.0172902030784585  0.7992185987677178 21.1749249136946815   T   T   T
  8.7654509999999988  8.1717849999999999  3.3038510000000003   F   F   F
  1.0475827763509653 11.2993499103740263 15.1439258038227305   T   T   T
  5.9578911935450654  7.7173802313884643  8.2223358637425346   T   T   T
  7.1595052019067724  5.5588551783671427 18.0695979369321371   T   T   T
 12.5873025003923527  6.7635270177295563  9.4307805177106356   T   T   T
  6.3645805528956423 13.3356529102492374 14.1086947852234719   T   T   T
  2.3878035160815854  5.7954124661635795 15.7533192889687079   T   T   T
  8.7622309999999999  4.8059450000000004  0.0000000000000000   F   F   F
  6.5044228166778559  6.7348076717950942  9.5076744488921303   T   T   T
 -1.1292559914235605  7.4810837903433951 18.9626422597666391   T   T   T
  5.6974024199029927  5.4301926297174559 11.2860540054163199   T   T   T
  5.8521590000000003  3.1258140000000001  3.3038510000000003   F   F   F
  2.9356460000000002  4.8059450000000004  0.0000000000000000   F   F   F
  9.6031659999999999  6.2624880000000003  0.0000000000000000   F   F   F
  3.7765810000000002  6.2624880000000003  0.0000000000000000   F   F   F
 11.0731432870315700  1.3526234603801184 13.8661661727343493   T   T   T
  9.2371962008019821  2.2521003497685452  9.1212463256467462   T   T   T
  6.6273882911901181  0.2338092863014953  4.0610109661384071   T   T   T
  0.9403424985580227  9.5913125966312673  4.5000680472106920   T   T   T
  2.8833708995530061  1.8965589863523520 15.4031245550233322   T   T   T
  6.1180593310657576  6.0449993897715490  8.0277108254704785   T   T   T
  9.1238838304151262  0.9052315080208918  8.0902294275776949   T   T   T
  9.0177158367357819  2.4648249464353311  7.4810464982379132   T   T   T
  9.7727577068899798  4.6496749267731330  4.4891732360635990   T   T   T
 11.6787440000000000  3.1258140000000001  3.3038510000000003   F   F   F
  4.7528884785916778  2.0299221094237989  8.0123953337516856   T   T   T
  0.8632889999999999  3.6094689999999998  1.9334300000000004   F   F   F
  6.6898739999999988  3.6094689999999998  1.9334300000000004   F   F   F
  8.4956725134924280  5.3127197907121166  5.3656936616841016   T   T   T
  9.6031659999999999  9.6227499999999999  3.3038510000000003   F   F   F
  0.8632889999999999  4.5767790000000002  3.3038510000000003   F   F   F
 10.4441009999999999  4.8059450000000004  0.0000000000000000   F   F   F
  9.5230509719470984 -0.9225594492162581 16.8294151825020286   T   T   T
  3.4725393591482381  1.1887929802833188  8.7293334007081569   T   T   T
  9.9553152205158053  6.1929056342605167  5.2068704921527562   T   T   T
  7.5090206707314833  6.9948946924696171  8.1623716035097686   T   T   T
  0.8632889999999999  1.2165170000000001  0.0000000000000000   F   F   F
  4.6142960000000004  8.1717849999999999  3.3038510000000003   F   F   F
 11.6755230000000001  9.8519159999999992  0.0000000000000000   F   F   F
 11.0108016360785363  8.3219889971459757 15.6050959765528052   T   T   T
  1.7805319473091459  6.8768239397072186  7.9820164107032365   T   T   T
 10.6281893445393187  9.4983818570402221 19.6647698086002691   T   T   T
  4.1881863199331466  6.1469174254424717  5.0338894187444945   T   T   T
  6.6898739999999988  4.5767790000000002  3.3038510000000003   F   F   F
 11.3720786851973674  0.2184048223739318  5.4241155837148360   T   T   T
  5.9059516186887473  4.2339932958492552 16.9110128690386539   T   T   T
  9.6031659999999999  8.6554400000000005  1.9334300000000004   F   F   F
  7.4625301129580679 -0.9713220751794802 17.7601265288122860   T   T   T
  3.1495355420756841  2.6470051064731703  7.9223416744282655   T   T   T
  9.1461506361182234  6.3775335944192451 18.0948844813087000   T   T   T
  7.5275879999999997  3.1258140000000001  3.3038510000000003   F   F   F
  4.8409900360941496  2.9293898638496203 15.5126409356319961   T   T   T
  7.1323480525662157  9.4338121125081464  5.3916993302151210   T   T   T
  7.1326540159374341  1.0502984719289807  5.4309073347770713   T   T   T
  4.1370296449082575  5.7896454898049363 14.5669797429151551   T   T   T
  3.5997880127043724  1.2577053239481182  7.0673218648118334   T   T   T
  0.3641908717768882  5.9321645854540286  8.0697418036925299   T   T   T
  3.7765810000000002  8.6554400000000005  1.9334300000000004   F   F   F
  1.7042239999999997  9.8519159999999992  0.0000000000000000   F   F   F
  7.5308089999999996  9.8519159999999992  0.0000000000000000   F   F   F
  4.6175160000000002  4.8059450000000004  0.0000000000000000   F   F   F
  3.7765810000000002  5.2914589999999988  1.3692120000000001   F   F   F
  0.2600389626067244  7.6315375675964123  8.1340411185175725   T   T   T
  6.6898739999999988  0.2454890000000000  1.3692120000000001   F   F   F
  1.7010029999999998  3.1258140000000001  3.3038510000000003   F   F   F
  6.2513552583090970 10.1388303107504196 19.2306958130285182   T   T   T
  1.1847130472132228  1.0515480964482544  5.1670896655530250   T   T   T
 10.4408809999999992  8.1717849999999999  3.3038510000000003   F   F   F
  6.6898739999999988  1.2165170000000001  0.0000000000000000   F   F   F
  2.9388659999999995  8.1717849999999999  3.3038510000000003   F   F   F
  0.8632889999999999  0.2454890000000000  1.3692120000000001   F   F   F
  9.9060020750493312  4.8202306534218851  6.1443519991460711   T   T   T
  4.1372046763784667  4.8416776992832213  6.0529069990997595   T   T   T
  5.6560998804661420  0.1989123057112136  5.4179763370862792   T   T   T
  1.1546180512015536 -0.3026744359676663  6.1435950852502161   T   T   T
  3.9158277953866154  4.5859532520862301  4.4052362959737037   T   T   T
  0.5554986022161313  6.5779483655747315 15.4781949474451590   T   T   T
  5.8489380000000004  9.8519159999999992  0.0000000000000000   F   F   F
  9.6031659999999999  5.2914589999999988  1.3692120000000001   F   F   F
  2.7125808842042196  5.3428734283963815  5.3074602808623625   T   T   T
  9.6031659999999999  8.6554400000000005  2.9597560000000009   F   F   F
  3.7765810000000002  5.2914589999999988  0.3425450000000003   F   F   F
  3.7765810000000002  8.6554400000000005  2.9597560000000009   F   F   F
  9.4826752545891875  1.8799739624385945  8.1911208617218474   T   T   T
  9.5299386482073380  5.2483494045863424  5.2867141378219680   T   T   T
  6.6898739999999988  0.2454890000000000  0.3425450000000003   F   F   F
  6.6381423191236859  0.2070257723551110  5.0840556309639231   T   T   T
  0.8273711472175882  6.8017475106557379  8.4035256772595499   T   T   T
  0.8632889999999999  0.2454890000000000  0.3425450000000003   F   F   F
  0.7456020448605490  0.1221050671130104  5.2939529372384264   T   T   T
  6.5273921056356610  6.8840351175262509  8.4834487700083727   T   T   T
  0.8632889999999999  3.6094689999999998  2.9597560000000009   F   F   F
  6.6898739999999988  3.6094689999999998  2.9597560000000009   F   F   F
  3.7379269128625086  1.7885763097964298  7.9424431333593457   T   T   T
  3.7367594764989742  5.2298614658034115  5.1849939308763675   T   T   T
  9.6031659999999999  5.2914589999999988  0.3425450000000003   F   F   F
  6.6898739999999988  8.3829300000000000  2.8003460000000007   F   F   F
  5.9778674019202018  4.7509123267160112 17.7390680088445301   T   T   T
  8.3833970000000004  2.6317130000000000  0.8160650000000000   F   F   F
  7.7890646404457069  6.2093300457355030 18.4631445792037319   T   T   T
  4.9972269999999996  1.2227390000000000  2.8003460000000007   F   F   F
  4.8797321920237895  7.7763431772379636  5.5677830314888643   T   T   T
 11.7911921713296337  0.7705073177172973 14.1912461638863547   T   T   T
 10.5420062799704439 10.4890374268453019 19.7209765557640679   T   T   T
  8.4829027835710047  7.7333233093788296 12.7531014442180535   T   T   T
  3.4142387584724418  5.7944043038237103 15.8016617133639858   T   T   T
 -0.8162407830483737  8.0789399759918368 19.7046476462077038   T   T   T
  4.6662480391361196  5.8240471504234073 13.7231258841388541   T   T   T
  5.7278782976785578  3.4153008476323823 15.6286733112094556   T   T   T
 10.1034851273632302  6.6233556777384086 17.9547209965918455   T   T   T
 -0.9614427351571999  1.0134530139394393 22.1163563774218943   T   T   T
  3.8946884100022165  2.7975659043404830 17.8338872871629128   T   T   T
  2.7942582442288497  4.1914939177220489 21.2310076976002193   T   T   T
  3.6828413285921120  7.5989319511431033 10.0793342912686832   T   T   T
  1.3911118632664241  6.6025220340002022 11.1622947819180407   T   T   T
  7.9105189999999999  6.2687099999999996  2.8003460000000007   F   F   F
  2.0839340000000002  6.2687099999999996  2.8003460000000007   F   F   F
 10.8238120000000002  1.2227390000000000  2.8003460000000007   F   F   F
 10.8306695954901535  2.8038858435825320 16.0084497602525460   T   T   T
 11.5168721965012821  7.7013295483599595 15.0262042993963281   T   T   T
  8.0291715008615352  2.2821149474989033 18.5323104449865106   T   T   T
  9.4826870224901292  5.1849946781167979 11.0375517898652227   T   T   T
 10.6908265074008337  4.6458320675735072 13.3765717310779291   T   T   T
  9.8766492411680247  2.0240125791567598 13.2396303589512492   T   T   T
  5.4283697089830785  2.9008806620433600  5.6050779353734770   T   T   T
  6.0895114017415128  9.3294156932611738 17.9591562585166571   T   T   T
  2.5568119999999999  2.6317130000000000  0.8160650000000000   F   F   F
  2.5065813907478924  8.0569582196781369  5.3579866143651698   T   T   T
  2.3416220109632642  7.8980920545997009 17.4355697788397954   T   T   T
 10.5494446079072510  7.7472016425979433  5.6177527901172830   T   T   T
  0.8632889999999999  8.3829300000000000  2.8003460000000007   F   F   F
  2.5559360000000000  1.2227390000000000  2.8003460000000007   F   F   F
  8.3825209999999988  1.2227390000000000  2.8003460000000007   F   F   F
  5.4692280000000002  6.2687099999999996  2.8003460000000007   F   F   F
 11.2958130000000008  6.2687099999999996  2.8003460000000007   F   F   F
  0.8632889999999999  5.5649810000000004  0.8160650000000000   F   F   F
  8.6955524668436901  7.2887209950568073 15.1921032368376281   T   T   T
  8.1644404076511137  8.1544166256053252  5.7155107704689252   T   T   T
  8.4329038342961162  1.5900167297875483 15.9819127193036206   T   T   T
 11.1834526674327286  2.9712311647692782  5.5546950531307120   T   T   T
  3.3889493987918176  7.0307184109718763  7.3615237085399814   T   T   T
  4.0467882867838068  9.0227776427707003 15.7464399281750325   T   T   T
  3.6082199369189265 10.0057128465557685 18.0247422150926191   T   T   T
  4.4726697711766610  8.5066872100234381 12.4864265424362841   T   T   T
  1.8089379578034879  3.1359434184345698 19.1629054778060102   T   T   T
  1.0388131166662116  5.7347443903964601 15.7361405733172308   T   T   T
  0.5480452812925861  2.1434763407125801  7.5944387105832121   T   T   T
  6.2541560020212881  2.9373524012203607 20.5145174766686758   T   T   T
  4.0920895453522483  7.9827713125670501 19.4172263591060315   T   T   T
  8.4609232700707668 -1.0055891755547195 17.8170312989746797   T   T   T
 10.3759114729339359 -0.7081104932557257 16.3763304081145087   T   T   T
  6.4145645618185609 10.5745697095373874 20.0869904472555341   T   T   T
  1.0266374432396925  4.8857338767431999  5.5632395501305183   T   T   T
  3.7765810000000002  0.5190110000000000  0.8160650000000000   F   F   F
  2.4195440710231684  9.2780590335204636  7.4402029838926929   T   T   T
  9.6031659999999999  0.5190110000000000  0.8160650000000000   F   F   F
  6.3194970741366694  6.9281870320061563 15.8191895202052333   T   T   T
 10.8229360000000003  2.6317130000000000  0.8160650000000000   F   F   F
  3.7517286144865225  2.2651541320988193 14.9732625063213334   T   T   T
 10.8614256985901694  8.9852058711785610  7.6783761348143580   T   T   T
  2.2236703343790096  7.5228010271887911 13.6135527107048837   T   T   T
  5.4701040000000001  7.6776840000000011  0.8160650000000000   F   F   F
  6.4523802186157981 13.0475686142433602 13.1965509409824406   T   T   T
  2.0776530774232103  4.0201431032405734  7.5723141403548615   T   T   T
 11.2966890000000006  7.6776840000000011  0.8160650000000000   F   F   F
  7.9096430000000000  7.6776840000000011  0.8160650000000000   F   F   F
  6.6898739999999988  5.5649810000000004  0.8160650000000000   F   F   F
  9.2551987573502945  7.1486641907652420  7.6177676371352376   T   T   T
  7.1854580664630303  9.1720260827596061 14.5843754965225738   T   T   T
  8.4660624309292256  9.4462459460006389  7.7746927962495347   T   T   T
  5.3868113473262005  4.5165350263813941  7.4163491681734968   T   T   T
 11.3083245187673302  4.4198756892599107  7.5019794484891840   T   T   T
  9.6031659999999999  3.3369589999999998  2.8003460000000007   F   F   F
  7.6601840123654492  5.4224179825208010 13.9277984010614180   T   T   T
  3.7765810000000002  3.3369589999999998  2.8003460000000007   F   F   F
  2.0830579999999999  7.6776840000000011  0.8160650000000000   F   F   F
  3.5141253120263767  1.7805306098290186 20.3335887399268351   T   T   T
 10.4353202916640502  3.4912041422734190 18.5884979964784023   T   T   T
  2.4456697745050375  3.2263030565448667 10.5540488068828271   T   T   T
  2.4039832559261431  4.2412470075079627 12.8565675870800220   T   T   T
  2.2687270112555744  1.6155175009962492 12.4852160869243782   T   T   T
  4.3392423528157655  1.6209672657020040 10.8020722872094925   T   T   T
  4.5581471567924812  4.4765749965383126 11.0785998300646931   T   T   T
 11.0091792997517466  3.2163454025338765 11.3357943437619202   T   T   T
  2.1843497171201371  8.9338332260729949 11.5532721430059002   T   T   T
  9.7148503993193795 10.0128112274860577  5.7796445489122830   T   T   T
  3.9299493768246032 10.0229819844439341  5.6988121950591539   T   T   T
  4.8413126950518661  8.9754586733906923  7.6824787166541402   T   T   T
  6.8261756853443867  4.8685531574879670  5.4907618670952036   T   T   T
  6.3211404877460327  6.1805600264946765 11.2484384995604394   T   T   T
  4.9963509999999998  2.6317130000000000  0.8160650000000000   F   F   F
  3.0818465484662023  5.2294809340566486 18.7714403602458653   T   T   T
  6.3838500300261485  2.3077376866376480  7.7562451330456712   T   T   T
  7.8165576717731673  4.2558838167774695  7.6092257199248010   T   T   T
  1.7398582575046757 11.5099404726068304 15.8468893437789475   T   T   T
  8.7651117447403362  3.9130473794657115 16.8029298046980529   T   T   T
  7.8246116861747907  2.6449878553876998  5.8100239383527166   T   T   T
  1.9155050984246134  2.6123081636901913  5.6041284355925427   T   T   T
  8.6419698756751249  2.6187608202579908 10.8544346721969447   T   T   T
  9.6031659999999999  1.9274789999999999  1.8016860000000001   F   F   F
  9.5023946352945288  8.5755346830107921  6.7226789078937026   T   T   T
  3.7765810000000002  1.9274789999999999  1.8016860000000001   F   F   F
  0.8632889999999999  6.9734499999999988  1.8016860000000001   F   F   F
  6.6898739999999988  6.9734499999999988  1.8016860000000001   F   F   F
  3.6587967443420877  8.5042180941230523  6.5415722029052272   T   T   T
  0.7902350464968748  3.5013082694949667  6.5723191401314534   T   T   T
  6.6134128309901543  3.5817797897339338  6.6294607547679627   T   T   T
  9.4674731407221238  3.7141730901949885 12.2491872627394685   T   T   T
  9.5564729074164791  2.3179901284689537 17.3664206581910037   T   T   T
  3.5620319348225919  3.5470288844164184 19.5973908318592898   T   T   T
  3.5580891735200733  2.9281758976455348 12.0131111986325632   T   T   T
  7.1920120793100279  7.3232799006650877 14.0948976125149397   T   T   T
  3.0609551667688342  7.3363709447301879 11.8954915853487719   T   T   T
  4.1702470640824965  8.3127618550601401 17.5352819564761653   T   T   T
