F  H  I  N  Si
 1.0000000000000000
    11.6531699554687993    0.0000000000000000    0.0000000000000000
     0.0000000000000000   10.0919412160536002    0.0000000000000000
     0.0000000000000000    0.0000000000000000   41.9057279999999963
 F   H   I   N   Si 
 103  84   7  16   8
Selective dynamics
Cartesian
  2.3486330000000000  7.8472970000000011 17.5077460000000009   T   T   T
  6.6898739999999988  5.5649810000000004  0.8160650000000000   F   F   F
  2.5568119999999999  2.6317130000000000  0.8160650000000000   F   F   F
  0.8632889999999999  5.5649810000000004  0.8160650000000000   F   F   F
 11.2958130000000008  6.2687099999999996  2.8003460000000007   F   F   F
  5.4692280000000002  6.2687099999999996  2.8003460000000007   F   F   F
  8.3825209999999988  1.2227390000000000  2.8003460000000007   F   F   F
  2.5559360000000000  1.2227390000000000  2.8003460000000007   F   F   F
 11.2933520000000005  4.3816259999999998  7.4918020000000007   T   T   T
  5.3625509999999998  4.4912729999999996  7.4061610000000009   T   T   T
  8.4515180000000001  9.3989519999999995  7.7567130000000013   T   T   T
  7.0500280000000002  9.2451720000000002 14.4557180000000027   T   T   T
  5.9659129999999996  9.2532259999999997 17.5482009999999988   T   T   T
 11.5279650000000000  7.6232919999999993 15.1598660000000010   T   T   T
  8.7263789999999997  7.4732870000000009 14.9237660000000023   T   T   T
  9.2626620000000006  7.1123460000000005  7.5840450000000015   T   T   T
  3.3774239999999995  7.0115070000000008  7.3819089999999994   T   T   T
 11.1805179999999975  2.9366129999999995  5.5436410000000000   T   T   T
  5.4493600000000004  2.8684940000000001  5.6028610000000008   T   T   T
  8.1631339999999994  8.1260549999999991  5.6872700000000016   T   T   T
  2.5048290000000000  8.0131280000000000  5.3558979999999998   T   T   T
  3.7765810000000002  3.3369589999999998  2.8003460000000007   F   F   F
  7.7325160000000004  5.5455990000000002 13.7074200000000008   T   T   T
  9.6031659999999999  3.3369589999999998  2.8003460000000007   F   F   F
  4.2792240000000001  8.1181669999999997 19.3693379999999991   T   T   T
  6.6213409999999993  3.1390220000000002 20.1547440000000009   T   T   T
  0.5459320000000000  2.1095600000000001  7.5833310000000003   T   T   T
  1.0641240000000001  5.6555859999999996 15.8766169999999995   T   T   T
  1.9641889999999997  3.1224200000000000 19.2223819999999996   T   T   T
  4.2625099999999998  8.5881109999999996 12.5780560000000001   T   T   T
  3.6077599999999999  9.9636370000000003 17.8445269999999994   T   T   T
  4.0129760000000001  8.8629660000000001 15.6482640000000028   T   T   T
  4.8757820000000001  7.7404409999999997  5.5827900000000001   T   T   T
  4.9972269999999996  1.2227390000000000  2.8003460000000007   F   F   F
  7.8273840000000003  6.1270720000000001 18.4075930000000021   T   T   T
  8.3833970000000004  2.6317130000000000  0.8160650000000000   F   F   F
  6.0567559999999991  4.6909090000000004 17.5551390000000040   T   T   T
 -1.4062170000000001  1.2614420000000000 21.9057280000000034   T   T   T
 10.3658490000000008 -0.7191360000000000 16.4338780000000035   T   T   T
  8.3676800000000000 -0.9939370000000001 17.7891480000000008   T   T   T
 10.1402300000000007  6.6532689999999999 18.0071190000000030   T   T   T
  5.7794949999999998  3.2883020000000003 15.5095919999999978   T   T   T
  4.6663009999999998  5.8108259999999996 13.6625009999999989   T   T   T
 -0.9018050000000000  8.1899370000000005 19.7426050000000011   T   T   T
  3.4510889999999996  5.7007839999999996 15.7817539999999994   T   T   T
  8.2974669999999993  7.9276739999999997 12.5121929999999999   T   T   T
 10.4862169999999999 10.5967959999999994 19.5526339999999976   T   T   T
 11.7510169999999992  0.6476449999999999 14.1001890000000021   T   T   T
 10.8238120000000002  1.2227390000000000  2.8003460000000007   F   F   F
  2.0839340000000002  6.2687099999999996  2.8003460000000007   F   F   F
  7.9105189999999999  6.2687099999999996  2.8003460000000007   F   F   F
  1.2538959999999999  6.6351560000000003 11.1694129999999987   T   T   T
  3.4006719999999997  7.8966580000000004 10.1220530000000011   T   T   T
  3.0933579999999998  4.1092959999999996 21.2391420000000011   T   T   T
  3.9407889999999997  2.7916400000000001 17.7444009999999999   T   T   T
  6.6898739999999988  8.3829300000000000  2.8003460000000007   F   F   F
  3.7547590000000000  1.7251639999999999 20.2393999999999998   T   T   T
  3.7989850000000001  2.1292130000000000 14.8785460000000018   T   T   T
 10.1190599999999993  2.0839210000000001 12.8928800000000017   T   T   T
 10.8163689999999999  4.7310499999999998 13.1341070000000020   T   T   T
  9.3504699999999996  5.3515580000000007 10.9604710000000036   T   T   T
  8.1070130000000002  2.2449550000000000 18.2871839999999999   T   T   T
  8.5948069999999994  1.6876530000000001 15.6772390000000001   T   T   T
 10.9828530000000004  2.8996580000000001 15.7924930000000003   T   T   T
  1.9080880000000000  8.9595859999999998 11.8032439999999994   T   T   T
 10.9899690000000003  3.4602780000000002 10.9737350000000013   T   T   T
  4.6258800000000004  4.3384190000000000 11.0012560000000015   T   T   T
  4.2337210000000001  1.5295280000000000 10.7994150000000015   T   T   T
  2.1371039999999999  1.7010110000000001 12.4603440000000010   T   T   T
  2.4316579999999997  4.3063739999999999 12.7657280000000011   T   T   T
  2.4389479999999999  3.2365630000000003 10.4888610000000000   T   T   T
 10.5488499999999998  3.4990860000000001 18.3848069999999986   T   T   T
  1.7829009999999998 11.3245839999999998 15.7002109999999995   T   T   T
  8.8768399999999996  3.9750580000000002 16.6138949999999994   T   T   T
  7.8460409999999996  2.6303100000000001  5.8422030000000005   T   T   T
  1.9142719999999998  2.5896809999999997  5.5955520000000005   T   T   T
  4.8239850000000004  8.9614659999999997  7.6829419999999997   T   T   T
  8.6237239999999993  2.7557190000000000 10.6977310000000010   T   T   T
  3.9227740000000000  9.9870269999999994  5.6844580000000002   T   T   T
  9.7031989999999979  9.9918049999999994  5.7651460000000005   T   T   T
  1.0148340000000000  4.8589880000000001  5.5605420000000008   T   T   T
  6.8297100000000004  4.8433619999999999  5.4961530000000014   T   T   T
  2.0830579999999999  7.6776840000000011  0.8160650000000000   F   F   F
  6.0656160000000003  6.3519340000000000 11.1853979999999993   T   T   T
  4.9963509999999998  2.6317130000000000  0.8160650000000000   F   F   F
  3.2386789999999999  5.2231009999999998 18.8024400000000007   T   T   T
  6.3783789999999998  2.2901549999999999  7.7670240000000010   T   T   T
  7.7871119999999987  4.2598989999999999  7.6335760000000015   T   T   T
  2.1247500000000001  7.3403660000000004 13.6772939999999998   T   T   T
 10.8506389999999993  8.9638539999999995  7.6604199999999993   T   T   T
  2.0659060000000000  3.9926960000000000  7.5683800000000003   T   T   T
 10.8229360000000003  2.6317130000000000  0.8160650000000000   F   F   F
  6.4380389999999998  6.9107640000000004 15.7107519999999994   T   T   T
  9.6031659999999999  0.5190110000000000  0.8160650000000000   F   F   F
  2.4009369999999999  9.2587569999999992  7.4195680000000008   T   T   T
  3.7765810000000002  0.5190110000000000  0.8160650000000000   F   F   F
  0.8632889999999999  8.3829300000000000  2.8003460000000007   F   F   F
 10.5510710000000003  7.7314829999999999  5.5924249999999995   T   T   T
  7.9096430000000000  7.6776840000000011  0.8160650000000000   F   F   F
 11.2966890000000006  7.6776840000000011  0.8160650000000000   F   F   F
  5.8315289999999997 10.1833450000000010 19.9888489999999983   T   T   T
  6.5460859999999998 13.0045859999999998 13.0761130000000012   T   T   T
  5.4701040000000001  7.6776840000000011  0.8160650000000000   F   F   F
 10.4441009999999999  4.8059450000000004  0.0000000000000000   F   F   F
  4.6175160000000002  4.8059450000000004  0.0000000000000000   F   F   F
  7.5308089999999996  9.8519159999999992  0.0000000000000000   F   F   F
  1.7042239999999997  9.8519159999999992  0.0000000000000000   F   F   F
  3.7765810000000002  8.6554400000000005  1.9334300000000004   F   F   F
  0.3357640000000000  5.8985219999999998  8.0473290000000013   T   T   T
  3.5940089999999998  1.2321240000000000  7.0517840000000005   T   T   T
  9.1323580000000000  0.8520900000000001  8.0983680000000007   T   T   T
  6.1225149999999990  6.0356199999999998  7.9906790000000010   T   T   T
  0.8632889999999999  4.5767790000000002  3.3038510000000003   F   F   F
  9.6031659999999999  9.6227499999999999  3.3038510000000003   F   F   F
  8.4991020000000006  5.2875189999999996  5.3654840000000004   T   T   T
  6.6898739999999988  3.6094689999999998  1.9334300000000004   F   F   F
  0.8632889999999999  3.6094689999999998  1.9334300000000004   F   F   F
  4.7421420000000003  1.9960570000000000  8.0097600000000000   T   T   T
 11.6787440000000000  3.1258140000000001  3.3038510000000003   F   F   F
  4.1472030000000002  5.7458299999999998 14.5052339999999980   T   T   T
 11.6755230000000001  9.8519159999999992  0.0000000000000000   F   F   F
  4.6142960000000004  8.1717849999999999  3.3038510000000003   F   F   F
  0.8632889999999999  1.2165170000000001  0.0000000000000000   F   F   F
  7.5208609999999991  6.9737869999999997  8.1253360000000026   T   T   T
  9.9561360000000008  6.1663189999999997  5.1853520000000000   T   T   T
  3.4608430000000001  1.1433350000000000  8.7119719999999994   T   T   T
  9.4932230000000004 -0.9208320000000000 16.8477429999999977   T   T   T
  2.9331429999999994  1.7353970000000001 15.2865459999999995   T   T   T
  8.7654509999999988  8.1717849999999999  3.3038510000000003   F   F   F
 -1.3174720000000000  1.0023450000000000 20.9794720000000012   T   T   T
  3.7765810000000002  9.6227499999999999  3.3038510000000003   F   F   F
  7.2199109999999997  2.8222820000000000 19.4797560000000018   T   T   T
  6.4895519999999998  6.7552360000000000  9.4600240000000007   T   T   T
 10.5676279999999991  9.6056220000000003 19.5828950000000006   T   T   T
  1.7526599999999999  6.8466540000000009  7.9834730000000018   T   T   T
 11.0151839999999996  8.2638540000000003 15.7032349999999994   T   T   T
 10.5051799999999993  1.8771760000000002  7.9907480000000017   T   T   T
  8.7622309999999999  4.8059450000000004  0.0000000000000000   F   F   F
  2.4295469999999999  5.7056409999999991 15.7951080000000008   T   T   T
  6.4374399999999996 13.2262930000000001 14.0024410000000010   T   T   T
 12.5276429999999994  6.7362880000000009  9.4160469999999989   T   T   T
  7.2238559999999996  5.4999150000000006 17.9446849999999998   T   T   T
  5.9760579999999992  7.7130830000000001  8.1541490000000021   T   T   T
  1.0878650000000001 11.1385310000000004 14.9960220000000000   T   T   T
  9.1623169999999998  2.3312290000000000  8.9393880000000028   T   T   T
 11.1808270000000007  1.3107380000000000 13.6623470000000022   T   T   T
  3.7765810000000002  6.2624880000000003  0.0000000000000000   F   F   F
  9.6031659999999999  6.2624880000000003  0.0000000000000000   F   F   F
  2.9356460000000002  4.8059450000000004  0.0000000000000000   F   F   F
  5.8521590000000003  3.1258140000000001  3.3038510000000003   F   F   F
  5.5750590000000004  5.5141410000000004 11.2401710000000001   T   T   T
 -1.1630480000000001  7.5591629999999999 19.0111419999999995   T   T   T
  6.6898739999999988  0.2454890000000000  1.3692120000000001   F   F   F
  0.2294710000000000  7.5985760000000013  8.1064710000000009   T   T   T
  1.1870140000000000  1.0223110000000000  5.1442490000000003   T   T   T
 10.4408809999999992  8.1717849999999999  3.3038510000000003   F   F   F
  7.1272469999999997  9.4087350000000001  5.3739780000000001   T   T   T
  6.6898739999999988  1.2165170000000001  0.0000000000000000   F   F   F
  0.9350759999999999  9.5593939999999993  4.4865529999999998   T   T   T
  6.6131180000000001  0.2263710000000000  4.0579970000000003   T   T   T
  3.9047760000000000  4.5584389999999999  4.4091659999999999   T   T   T
  1.1576370000000000 -0.3258780000000000  6.1298160000000008   T   T   T
  5.6466570000000003  0.1669530000000000  5.4174579999999999   T   T   T
  4.1299960000000002  4.8172649999999999  6.0573300000000003   T   T   T
  9.9185239999999997  4.7990800000000000  6.1315870000000006   T   T   T
  0.8632889999999999  0.2454890000000000  1.3692120000000001   F   F   F
  6.5765570000000002  9.6039809999999992 20.0681200000000040   T   T   T
  1.7010029999999998  3.1258140000000001  3.3038510000000003   F   F   F
 11.3745829999999994  0.1957590000000000  5.4108499999999999   T   T   T
  6.6898739999999988  4.5767790000000002  3.3038510000000003   F   F   F
  2.9388659999999995  8.1717849999999999  3.3038510000000003   F   F   F
  3.7765810000000002  5.2914589999999988  1.3692120000000001   F   F   F
  2.7040340000000000  5.3175570000000008  5.3117939999999999   T   T   T
  9.6031659999999999  5.2914589999999988  1.3692120000000001   F   F   F
  5.8489380000000004  9.8519159999999992  0.0000000000000000   F   F   F
  0.5842200000000000  6.4983219999999999 15.6288960000000028   T   T   T
  4.1783960000000002  6.1202519999999998  5.0344050000000014   T   T   T
  4.8947719999999997  2.7961559999999999 15.4111739999999990   T   T   T
  7.5275879999999997  3.1258140000000001  3.3038510000000003   F   F   F
  9.1914250000000006  6.3637189999999997 18.1079729999999977   T   T   T
  3.1393509999999996  2.6107589999999998  7.9202850000000016   T   T   T
  7.3926599999999993 -0.9936350000000000 17.6173879999999983   T   T   T
  9.6031659999999999  8.6554400000000005  1.9334300000000004   F   F   F
  5.9683909999999987  4.1585000000000001 16.7372779999999999   T   T   T
  9.7659540000000007  4.6207989999999999  4.4774560000000001   T   T   T
  9.0371579999999998  2.2953139999999999  7.2682750000000009   T   T   T
  7.1188129999999994  1.0233090000000000  5.4370409999999998   T   T   T
  4.2025920000000001  8.2552990000000008 17.4641289999999998   T   T   T
  2.8992030000000000  7.3998119999999998 11.9228699999999996   T   T   T
  7.1465969999999990  7.4066780000000003 13.9422490000000003   T   T   T
  3.5217269999999998  2.9147189999999998 11.9645779999999995   T   T   T
  3.7467640000000002  3.5052539999999999 19.5409199999999998   T   T   T
  9.6952610000000004  2.3722159999999999 17.1034720000000000   T   T   T
  9.5277510000000003  3.8110149999999998 12.0694799999999987   T   T   T
  3.7765810000000002  5.2914589999999988  0.3425450000000003   F   F   F
  0.7923820000000000  6.7693690000000002  8.3865650000000009   T   T   T
  6.6279279999999998  0.1840250000000000  5.0805610000000003   T   T   T
  6.6898739999999988  0.2454890000000000  0.3425450000000003   F   F   F
  9.5324190000000009  5.2226070000000000  5.2756800000000004   T   T   T
  3.7765810000000002  8.6554400000000005  2.9597560000000009   F   F   F
  0.8632889999999999  0.2454890000000000  0.3425450000000003   F   F   F
  0.7465710000000000  0.0949560000000000  5.2784490000000002   T   T   T
  6.5342589999999996  6.8788239999999998  8.4340580000000003   T   T   T
  0.8632889999999999  3.6094689999999998  2.9597560000000009   F   F   F
  6.6898739999999988  3.6094689999999998  2.9597560000000009   F   F   F
  3.7284639999999993  1.7531159999999999  7.9329770000000011   T   T   T
  3.7276840000000000  5.2032309999999997  5.1883990000000013   T   T   T
  9.6031659999999999  5.2914589999999988  0.3425450000000003   F   F   F
  9.4695380000000000  1.8379360000000002  8.0882500000000004   T   T   T
  9.6031659999999999  8.6554400000000005  2.9597560000000009   F   F   F
  9.4977190000000000  8.5469919999999995  6.6992300000000018   T   T   T
  0.8632889999999999  6.9734499999999988  1.8016860000000001   F   F   F
  6.6898739999999988  6.9734499999999988  1.8016860000000001   F   F   F
  3.6475350000000000  8.4743870000000001  6.5425560000000003   T   T   T
  0.7844199999999999  3.4702190000000002  6.5653720000000018   T   T   T
  6.6098109999999997  3.5659400000000003  6.6443270000000005   T   T   T
  9.6031659999999999  1.9274789999999999  1.8016860000000001   F   F   F
  3.7765810000000002  1.9274789999999999  1.8016860000000001   F   F   F
