F  H  I  N  Si
 1.0000000000000000
    23.3063399109375986    0.0000000000000000    0.0000000000000000
     0.0000000000000000   20.1838824321072003    0.0000000000000000
     0.0000000000000000    0.0000000000000000   38.5094320000000039
 F   H   I   N   Si 
 408 332  28  64  32
Selective dynamics
Cartesian
  3.8306508691722878 20.1303015934350533  5.6844581608988580   T   T   T
  3.6626367061470986 11.8684387748716098 20.2394006003040019   T   T   T
  6.5977509999999988 18.5262042160535998  2.8003459999999984   F   F   F
  3.8486660016783079 12.9349141528408609 17.7444010078569470   T   T   T
  3.0012355203527363 14.2525700840374334 21.2391424567119813   T   T   T
  3.3085489572153799 18.0399330252727701 10.1220529905814729   T   T   T
  1.1617729009123485 16.7784304237352586 11.1694127268085523   T   T   T
  1.6907787186398204 21.4678584231754499 15.7002111829964104   T   T   T
  8.7847174646105763 14.1183321612675030 16.6138948020795425   T   T   T
  7.7539184536232115 12.7735843529714810  5.8422033683168575   T   T   T
  1.8221498033246843 12.7329558850839462  5.5955517357752411   T   T   T
 10.4589484478687833 17.8747571828682581  5.5924256563412769   T   T   T
  0.7711660000000000 18.5262042160535998  2.8003459999999984   F   F   F
  3.6844579999999993 10.6622852160536006  0.8160649999999997   F   F   F
  2.3088139768822264 19.4020319734989926  7.4195682744173048   T   T   T
  9.5110430000000008 10.6622852160536006  0.8160649999999997   F   F   F
  6.3459163289255534 17.0540382006251185 15.7107524573845989   T   T   T
 10.7308129999999977 12.7749872160536011  0.8160649999999997   F   F   F
  8.5316011641617919 12.8989940189383763 10.6977309756702148   T   T   T
 17.0311509554687994 17.8209582160536009  0.8160649999999997   F   F   F
  9.6110767396448562 20.1350794508634472  5.7651457578203091   T   T   T
  0.9227117217151664 15.0022627945988560  5.5605422535382205   T   T   T
  6.7375875588612812 14.9866363865322469  5.4961533858846803   T   T   T
  1.9909349999999999 17.8209582160536009  0.8160649999999997   F   F   F
  3.7068618722291715 12.2724874322702586 14.8785466874980354   T   T   T
  5.9734936130904526 16.4952081603378069 11.1853982664934701   T   T   T
  3.1465566098316304 15.3663754325723758 18.8024398199618474   T   T   T
  7.6949894996097097 14.4031732041801988  7.6335759665727343   T   T   T
  7.8175200000000000 17.8209582160536009  0.8160649999999997   F   F   F
  2.0326270913797049 17.4836407982512725 13.6772942504723840   T   T   T
 10.7585166256601070 19.1071281828832369  7.6604197917161745   T   T   T
  1.9737833598681143 14.1359704676350315  7.5683802660545956   T   T   T
  4.9042279999999998 12.7749872160536011  0.8160649999999997   F   F   F
  4.7318623011209802 19.1047401574180107  7.6829425094248469   T   T   T
 10.0269374291720936 12.2271959828407866 12.8928799656447737   T   T   T
  9.2583469407844170 15.4948329141530277 10.9604710954133502   T   T   T
 18.6110754093516881 19.3884469924165970 14.4557179957737567   T   T   T
 17.5269600001722949 19.3965002306642944 17.5482011965781695   T   T   T
 23.0890121591039588 17.7665669940076398 15.1598664857899816   T   T   T
 20.2874263743842143 17.6165620361277924 14.9237660032348796   T   T   T
 20.8237094774822786 17.2556207173570044  7.5840451528019894   T   T   T
 14.9384715907845749 17.1547811441680658  7.3819090325604124   T   T   T
 22.7415647993585779 13.0798871926808626  5.5436409126951434   T   T   T
 17.0104075608413297 13.0117684555319162  5.6028613083722796   T   T   T
 19.7241815571141679 18.2693294185465973  5.6872699960362931   T   T   T
 14.0658764243991445 18.1564024233181804  5.3558983176129420   T   T   T
 15.3376279554687986 13.4802332160536000  2.8003459999999984   F   F   F
 21.1642129554687983 13.4802332160536000  2.8003459999999984   F   F   F
 22.3848589554688004 11.3660132160536005  2.8003459999999984   F   F   F
 13.6449809554687995 16.4119842160536002  2.8003459999999984   F   F   F
 19.4715659554687974 16.4119842160536002  2.8003459999999984   F   F   F
 16.3850322565897812 19.1047401574180107  7.6829425094248469   T   T   T
 20.1847711196305895 12.8989940189383763 10.6977309756702148   T   T   T
  8.0148903004529561 12.3882294225033611 18.2871837340841630   T   T   T
  8.5026840735293359 11.8309275524604960 15.6772393986937821   T   T   T
 10.8907300360943147 13.0429326760549049 15.7924928111550571   T   T   T
  1.8159658090938784 19.1028606577330393 11.8032442530962225   T   T   T
 10.8978459758125847 13.6035526903489874 10.9737349844332215   T   T   T
  4.5337570779193044 14.4816935455523854 11.0012558361849635   T   T   T
 10.7242465468178185 14.8743244428118224 13.1341075238442375   T   T   T
  4.1415984290827819 11.6728027711137337 10.7994155380523580   T   T   T
  2.3395348618671732 14.4496486533069888 12.7657282799366492   T   T   T
  2.3468253275128190 13.3798375796581226 10.4888608196669075   T   T   T
 10.4567269934153479 13.6423602826340655 18.3848072121922606   T   T   T
 12.5758816771839648 15.0022627945988560  5.5605422535382205   T   T   T
 21.2642466951136555 20.1350794508634472  5.7651457578203091   T   T   T
 15.4838208246410876 20.1303015934350533  5.6844581608988580   T   T   T
  2.0449814481564714 11.8442858891350973 12.4603441650753251   T   T   T
 20.0125656382336423 19.5422268014332516  7.7567133309828371   T   T   T
  7.8183959999999999 16.4119842160536002  2.8003459999999984   F   F   F
 10.7316889999999994 11.3660132160536005  2.8003459999999984   F   F   F
 -1.4983399948526037 11.4047168165589312 21.9057279679295291   T   T   T
  5.9646332158801059 14.8341836639691689 17.5551393404426825   T   T   T
  8.2912739999999978 12.7749872160536011  0.8160649999999997   F   F   F
  7.7352615371303468 16.2703465058539685 18.4075930452680652   T   T   T
  4.9051039999999997 11.3660132160536005  2.8003459999999984   F   F   F
  4.7836590864134676 17.8837156101279433  5.5827899047007561   T   T   T
  3.9208537737661286 19.0062404580580733 15.6482645572752919   T   T   T
  2.2565104548417105 17.9905714898195086 17.5077462691930243   T   T   T
  3.5156375750974846 20.1069111315127032 17.8445272573819658   T   T   T
  4.1703870947057187 18.7313855985446729 12.5780557615574899   T   T   T
  1.8720662771060639 13.2656950405494136 19.2223818847736325   T   T   T
  0.9720014263602937 15.7988607130565377 15.8766176891074853   T   T   T
  0.4538089376571198 12.2528340998309737  7.5833313817580912   T   T   T
  6.2862567090110399 12.4334298519469701  7.7670241241634681   T   T   T
 11.2045659999999998 17.8209582160536009  0.8160649999999997   F   F   F
  5.3779810000000001 17.8209582160536009  0.8160649999999997   F   F   F
  6.4539635509994460 23.1478610048516558 13.0761129984874689   T   T   T
 13.9619839323510249 19.4020319734989926  7.4195682744173048   T   T   T
 21.1642129554687983 10.6622852160536006  0.8160649999999997   F   F   F
 17.9990862843943518 17.0540382006251185 15.7107524573845989   T   T   T
 22.3839829554687952 12.7749872160536011  0.8160649999999997   F   F   F
 13.6269533153369142 14.1359704676350315  7.5683802660545956   T   T   T
 22.4116865811289045 19.1071281828832369  7.6604197917161745   T   T   T
 10.2737262133188239  9.4241387464004838 16.4338786715763874   T   T   T
 13.6857970468485046 17.4836407982512725 13.6772942504723840   T   T   T
 19.3481594550785090 14.4031732041801988  7.6335759665727343   T   T   T
 14.7997265653004302 15.3663754325723758 18.8024398199618474   T   T   T
 16.5573979554688009 12.7749872160536011  0.8160649999999997   F   F   F
 17.6266635685592519 16.4952081603378069 11.1853982664934701   T   T   T
 13.6441049554687996 17.8209582160536009  0.8160649999999997   F   F   F
 18.3907575143300797 14.9866363865322469  5.4961533858846803   T   T   T
 19.4706899554687993 17.8209582160536009  0.8160649999999997   F   F   F
  1.9918110000000000 16.4119842160536002  2.8003459999999984   F   F   F
  8.2755576605923178  9.1493376734999661 17.7891478637652796   T   T   T
  5.6873727604396747 13.4315762872410200 15.5095917562545669   T   T   T
  9.5110430000000008 13.4802332160536000  2.8003459999999984   F   F   F
  3.6844579999999993 13.4802332160536000  2.8003459999999984   F   F   F
  2.4127064689303452 18.1564024233181804  5.3558983176129420   T   T   T
  8.0710116016453686 18.2693294185465973  5.6872699960362931   T   T   T
  5.3572376053725312 13.0117684555319162  5.6028613083722796   T   T   T
 11.0883948438897786 13.0798871926808626  5.5436409126951434   T   T   T
  3.2853016353157760 17.1547811441680658  7.3819090325604124   T   T   T
  9.1705395220134793 17.2556207173570044  7.5840451528019894   T   T   T
  8.6342564189154150 17.6165620361277924 14.9237660032348796   T   T   T
 11.4358422036351612 17.7665669940076398 15.1598664857899816   T   T   T
  5.8737900447034974 19.3965002306642944 17.5482011965781695   T   T   T
  6.9579054538828879 19.3884469924165970 14.4557179957737567   T   T   T
  8.3593956827648430 19.5422268014332516  7.7567133309828371   T   T   T
  5.2704280334823137 14.6345476436397739  7.4061609184973500   T   T   T
 11.2012291073392394 14.5249009311055275  7.4918022547732557   T   T   T
  2.4638130000000000 11.3660132160536005  2.8003459999999984   F   F   F
  8.2903979999999997 11.3660132160536005  2.8003459999999984   F   F   F
  4.5741780872321094 15.9541007437163209 13.6625010280649573   T   T   T
 -0.9939278861559994 18.3332114982306393 19.7426047580982029   T   T   T
  3.3589660077217562 15.8440583474771906 15.7817538216476194   T   T   T
  8.2053445750932923 18.0709485858990675 12.5121935682854204   T   T   T
 10.3940945763636119 20.7400706644481438 19.5526346780259104   T   T   T
  6.5292186541707595 13.2822968974304807 20.1547445474016946   T   T   T
 10.0481077633249409 16.7965434858302984 18.0071187287806715   T   T   T
 11.6588941385427738 10.7909193109369355 14.1001893315496378   T   T   T
  7.6403928479064618 15.6888735576051879 13.7074197110657447   T   T   T
  6.5977509999999988 15.7082552160536011  0.8160649999999997   F   F   F
  2.4646889999999999 12.7749872160536011  0.8160649999999997   F   F   F
  0.7711660000000000 15.7082552160536011  0.8160649999999997   F   F   F
 11.2036899999999999 16.4119842160536002  2.8003459999999984   F   F   F
  5.3771050000000002 16.4119842160536002  2.8003459999999984   F   F   F
  4.1871013752805091 18.2614417737291248 19.3693384776091122   T   T   T
 15.3376279554687986 10.6622852160536006  0.8160649999999997   F   F   F
 16.9235979889511121 14.6345476436397739  7.4061609184973500   T   T   T
 14.1169829554687993 11.3660132160536005  2.8003459999999984   F   F   F
 22.5438999915631157  2.9509914600013043 15.7924928111550571   T   T   T
 20.1558540289981352  1.7389863364068960 15.6772393986937821   T   T   T
 19.6680602559217554  2.2962882064497601 18.2871837340841630   T   T   T
 20.9115168962532181  5.4028916980994275 10.9604710954133502   T   T   T
 22.3774165022866178  4.7823832267582222 13.1341075238442375   T   T   T
 21.6801073846408912  2.1352547667871873 12.8928799656447737   T   T   T
 15.3600318276979699  2.1805462162166580 14.8785466874980354   T   T   T
 15.3158066616158983  1.7764975588180094 20.2394006003040019   T   T   T
 18.2509209554687999  8.4342629999999996  2.8003459999999984   F   F   F
 15.5018359571471080  2.8429729367872612 17.7444010078569470   T   T   T
 14.6544054758215356  4.1606288679838341 21.2391424567119813   T   T   T
 14.9617189126841801  7.9479918092191690 10.1220529905814729   T   T   T
 12.8149428563811476  6.6864892076816593 11.1694127268085523   T   T   T
 13.3439486741086206 11.3759172071218515 15.7002111829964104   T   T   T
 20.4378874200793774  4.0263909452139037 16.6138948020795425   T   T   T
 19.4070884090920117  2.6816431369178813  5.8422033683168575   T   T   T
 13.4753197587934839  2.6410146690303455  5.5955517357752411   T   T   T
 16.5573979554688009  2.6830460000000005  0.8160649999999997   F   F   F
 14.7997265653004302  5.2744342165187765 18.8024398199618474   T   T   T
 19.3481594550785090  4.3112319881265977  7.6335759665727343   T   T   T
 19.4706899554687993  7.7290169999999998  0.8160649999999997   F   F   F
 13.6857970468485046  7.3916995821976723 13.6772942504723840   T   T   T
 22.4116865811289045  9.0151869668296349  7.6604197917161745   T   T   T
 13.4691357645626777  9.0109194416794409 11.8032442530962225   T   T   T
 13.6269533153369142  4.0440292515814313  7.5683802660545956   T   T   T
 17.9990862843943518  6.9620969845715184 15.7107524573845989   T   T   T
 21.1642129554687983  0.5703440000000000  0.8160649999999997   F   F   F
 13.9619839323510249  9.3100907574453924  7.4195682744173048   T   T   T
 15.3376279554687986  0.5703440000000000  0.8160649999999997   F   F   F
 12.4243359554687984  8.4342629999999996  2.8003459999999984   F   F   F
 22.1121184033375826  7.7828159668146570  5.5924256563412769   T   T   T
 22.3839829554687952  2.6830460000000005  0.8160649999999997   F   F   F
 17.6266635685592519  6.4032669442842058 11.1853982664934701   T   T   T
 22.5510159312813840  3.5116114742953868 10.9737349844332215   T   T   T
 15.7947683845515812  1.5808615550601341 10.7994155380523580   T   T   T
 22.8577359554687973 17.8209582160536009  0.8160649999999997   F   F   F
 17.9394266644798392 12.4334298519469701  7.7670241241634681   T   T   T
 12.1069788931259197 12.2528340998309737  7.5833313817580912   T   T   T
 12.6251713818290927 15.7988607130565377 15.8766176891074853   T   T   T
 13.5252362325748638 13.2656950405494136 19.2223818847736325   T   T   T
 15.8235570501745180 18.7313855985446729 12.5780557615574899   T   T   T
 15.1688075305662835 20.1069111315127032 17.8445272573819658   T   T   T
 13.9096804103105107 17.9905714898195086 17.5077462691930243   T   T   T
 15.5740237292349271 19.0062404580580733 15.6482645572752919   T   T   T
 16.4368290418822660 17.8837156101279433  5.5827899047007561   T   T   T
 16.5582739554687990 11.3660132160536005  2.8003459999999984   F   F   F
 19.3884314925991461 16.2703465058539685 18.4075930452680652   T   T   T
 19.9444439554687989 12.7749872160536011  0.8160649999999997   F   F   F
 17.6178031713489034 14.8341836639691689 17.5551393404426825   T   T   T
 10.1548299606161958 11.4047168165589312 21.9057279679295291   T   T   T
 21.9268961687876214  9.4241387464004838 16.4338786715763874   T   T   T
 19.9287276160611171  9.1493376734999661 17.7891478637652796   T   T   T
 13.6981514036252712  1.7523446730814973 12.4603441650753251   T   T   T
 13.9927048173359729  4.3577074372533886 12.7657282799366492   T   T   T
 13.9999952829816188  3.2878963636045224 10.4888608196669075   T   T   T
 22.1098969488841490  3.5504190665804649 18.3848072121922606   T   T   T
 15.8402713307493084 18.2614417737291248 19.3693384776091122   T   T   T
 23.3120640940115749 10.7909193109369355 14.1001893315496378   T   T   T
 16.1869270333881019  4.3897523294987861 11.0012558361849635   T   T   T
 18.1823886096395597 13.2822968974304807 20.1547445474016946   T   T   T
 19.8585145305620898 18.0709485858990675 12.5121935682854204   T   T   T
 15.0121359631905555 15.8440583474771906 15.7817538216476194   T   T   T
 10.6592420693127998 18.3332114982306393 19.7426047580982029   T   T   T
 16.2273480427009105 15.9541007437163209 13.6625010280649573   T   T   T
 17.3405427159084731 13.4315762872410200 15.5095917562545669   T   T   T
 21.7012777187937402 16.7965434858302984 18.0071187287806715   T   T   T
 22.0472645318324112 20.7400706644481438 19.5526346780259104   T   T   T
 22.8543990628080387 14.5249009311055275  7.4918022547732557   T   T   T
 13.6441049554687996  7.7290169999999998  0.8160649999999997   F   F   F
 12.5758816771839648  4.9103215785452559  5.5605422535382205   T   T   T
 15.0121359631905555  5.7521171314235904 15.7817538216476194   T   T   T
 10.6592420693127998  8.2412702821770409 19.7426047580982029   T   T   T
 16.2273480427009105  5.8621595276627207 13.6625010280649573   T   T   T
 17.3405427159084731  3.3396350711874199 15.5095917562545669   T   T   T
 21.7012777187937402  6.7046022697767000 18.0071187287806715   T   T   T
 19.9287276160611171 -0.9426035425536333 17.7891478637652796   T   T   T
 21.9268961687876214 -0.6678024696531155 16.4338786715763874   T   T   T
 10.1548299606161958  1.3127756005053317 21.9057279679295291   T   T   T
 17.6178031713489034  4.7422424479155687 17.5551393404426825   T   T   T
 19.9444439554687989  2.6830460000000005  0.8160649999999997   F   F   F
 19.3884314925991461  6.1784052898003692 18.4075930452680652   T   T   T
 16.5582739554687990  1.2740720000000001  2.8003459999999984   F   F   F
 16.4368290418822660  7.7917743940743440  5.5827899047007561   T   T   T
 15.5740237292349271  8.9142992420044731 15.6482645572752919   T   T   T
 13.9096804103105107  7.8986302737659084 17.5077462691930243   T   T   T
 15.1688075305662835 10.0149699154591012 17.8445272573819658   T   T   T
 15.8235570501745180  8.6394443824910727 12.5780557615574899   T   T   T
 19.9435679554688008 11.3660132160536005  2.8003459999999984   F   F   F
 17.0302749554687978 16.4119842160536002  2.8003459999999984   F   F   F
 22.8568599554687992 16.4119842160536002  2.8003459999999984   F   F   F
 12.4243359554687984 15.7082552160536011  0.8160649999999997   F   F   F
 14.1178589554687992 12.7749872160536011  0.8160649999999997   F   F   F
 18.2509209554687999 15.7082552160536011  0.8160649999999997   F   F   F
 19.8585145305620898  7.9790073698454673 12.5121935682854204   T   T   T
 19.2935628033752593 15.6888735576051879 13.7074197110657447   T   T   T
 17.0311509554687994  7.7290169999999998  0.8160649999999997   F   F   F
 22.8577359554687973  7.7290169999999998  0.8160649999999997   F   F   F
 17.9394266644798392  2.3414886358933695  7.7670241241634681   T   T   T
 12.1069788931259197  2.1608928837773740  7.5833313817580912   T   T   T
 12.6251713818290927  5.7069194970029367 15.8766176891074853   T   T   T
 13.5252362325748638  3.1737538244958134 19.2223818847736325   T   T   T
 18.1071335064682444 13.0559197887980556 13.0761129984874689   T   T   T
 18.3907575143300797  4.8946951704786468  5.4961533858846803   T   T   T
 22.0472645318324112 10.6481294483945437 19.5526346780259104   T   T   T
 23.3120640940115749  0.6989780948833358 14.1001893315496378   T   T   T
 21.2642466951136555 10.0431382348098470  5.7651457578203091   T   T   T
 15.4838208246410876 10.0383603773814531  5.6844581608988580   T   T   T
 20.1847711196305895  2.8070528028847757 10.6977309756702148   T   T   T
 16.3850322565897812  9.0127989413644105  7.6829425094248469   T   T   T
 19.4715659554687974  6.3200430000000001  2.8003459999999984   F   F   F
 13.6449809554687995  6.3200430000000001  2.8003459999999984   F   F   F
 22.3848589554688004  1.2740720000000001  2.8003459999999984   F   F   F
 21.1642129554687983  3.3882919999999999  2.8003459999999984   F   F   F
 15.3376279554687986  3.3882919999999999  2.8003459999999984   F   F   F
 14.0658764243991445  8.0644612072645803  5.3558983176129420   T   T   T
 19.7241815571141679  8.1773882024929989  5.6872699960362931   T   T   T
 17.0104075608413297  2.9198272394783165  5.6028613083722796   T   T   T
 22.7415647993585779  2.9879459766272620  5.5436409126951434   T   T   T
 14.9384715907845749  7.0628399281144656  7.3819090325604124   T   T   T
 20.8237094774822786  7.1636795013034060  7.5840451528019894   T   T   T
 20.2874263743842143  7.5246208200741922 14.9237660032348796   T   T   T
 23.0890121591039588  7.6746257779540397 15.1598664857899816   T   T   T
 15.8402713307493084  8.1695005576755246 19.3693384776091122   T   T   T
 19.2935628033752593  5.5969323415515877 13.7074197110657447   T   T   T
 18.2509209554687999  5.6163140000000000  0.8160649999999997   F   F   F
 14.1178589554687992  2.6830460000000005  0.8160649999999997   F   F   F
 12.4243359554687984  5.6163140000000000  0.8160649999999997   F   F   F
 22.8568599554687992  6.3200430000000001  2.8003459999999984   F   F   F
 18.1823886096395597  3.1903556813768805 20.1547445474016946   T   T   T
 17.0302749554687978  6.3200430000000001  2.8003459999999984   F   F   F
 14.1169829554687993  1.2740720000000001  2.8003459999999984   F   F   F
 22.8543990628080387  4.4329597150519282  7.4918022547732557   T   T   T
 16.9235979889511121  4.5426064275861746  7.4061609184973500   T   T   T
 20.0125656382336423  9.4502855853796497  7.7567133309828371   T   T   T
 18.6110754093516881  9.2965057763629950 14.4557179957737567   T   T   T
 17.5269600001722949  9.3045590146106925 17.5482011965781695   T   T   T
 19.9435679554688008  1.2740720000000001  2.8003459999999984   F   F   F
 12.4243359554687984 18.5262042160535998  2.8003459999999984   F   F   F
 18.1071335064682444 23.1478610048516558 13.0761129984874689   T   T   T
 10.7316889999999994  1.2740720000000001  2.8003459999999984   F   F   F
  3.0012355203527363  4.1606288679838341 21.2391424567119813   T   T   T
  3.8486660016783079  2.8429729367872612 17.7444010078569470   T   T   T
  6.5977509999999988  8.4342629999999996  2.8003459999999984   F   F   F
  3.6626367061470986  1.7764975588180094 20.2394006003040019   T   T   T
  3.7068618722291715  2.1805462162166580 14.8785466874980354   T   T   T
 10.0269374291720936  2.1352547667871873 12.8928799656447737   T   T   T
 10.7242465468178185  4.7823832267582222 13.1341075238442375   T   T   T
  9.2583469407844170  5.4028916980994275 10.9604710954133502   T   T   T
  8.0148903004529561  2.2962882064497601 18.2871837340841630   T   T   T
  8.5026840735293359  1.7389863364068960 15.6772393986937821   T   T   T
 10.8907300360943147  2.9509914600013043 15.7924928111550571   T   T   T
  1.8159658090938784  9.0109194416794409 11.8032442530962225   T   T   T
 10.8978459758125847  3.5116114742953868 10.9737349844332215   T   T   T
  4.5337570779193044  4.3897523294987861 11.0012558361849635   T   T   T
  4.1415984290827819  1.5808615550601341 10.7994155380523580   T   T   T
  2.0449814481564714  1.7523446730814973 12.4603441650753251   T   T   T
  2.3395348618671732  4.3577074372533886 12.7657282799366492   T   T   T
 19.4070884090920117 12.7735843529714810  5.8422033683168575   T   T   T
 20.4378874200793774 14.1183321612675030 16.6138948020795425   T   T   T
 13.3439486741086206 21.4678584231754499 15.7002111829964104   T   T   T
 12.8149428563811476 16.7784304237352586 11.1694127268085523   T   T   T
 14.9617189126841801 18.0399330252727701 10.1220529905814729   T   T   T
 14.6544054758215356 14.2525700840374334 21.2391424567119813   T   T   T
  3.3085489572153799  7.9479918092191690 10.1220529905814729   T   T   T
 18.2509209554687999 18.5262042160535998  2.8003459999999984   F   F   F
 15.3600318276979699 12.2724874322702586 14.8785466874980354   T   T   T
 21.6801073846408912 12.2271959828407866 12.8928799656447737   T   T   T
 22.3774165022866178 14.8743244428118224 13.1341075238442375   T   T   T
 20.9115168962532181 15.4948329141530277 10.9604710954133502   T   T   T
 10.4567269934153479  3.5504190665804649 18.3848072121922606   T   T   T
  2.3468253275128190  3.2878963636045224 10.4888608196669075   T   T   T
 15.3158066616158983 11.8684387748716098 20.2394006003040019   T   T   T
  1.1617729009123485  6.6864892076816593 11.1694127268085523   T   T   T
  1.6907787186398204 11.3759172071218515 15.7002111829964104   T   T   T
  8.7847174646105763  4.0263909452139037 16.6138948020795425   T   T   T
  6.7375875588612812  4.8946951704786468  5.4961533858846803   T   T   T
  0.9227117217151664  4.9103215785452559  5.5605422535382205   T   T   T
  9.6110767396448562 10.0431382348098470  5.7651457578203091   T   T   T
  3.8306508691722878 10.0383603773814531  5.6844581608988580   T   T   T
  8.5316011641617919  2.8070528028847757 10.6977309756702148   T   T   T
  4.7318623011209802  9.0127989413644105  7.6829425094248469   T   T   T
  1.9909349999999999  7.7290169999999998  0.8160649999999997   F   F   F
  7.8183959999999999  6.3200430000000001  2.8003459999999984   F   F   F
 22.1098969488841490 13.6423602826340655 18.3848072121922606   T   T   T
  9.5110430000000008  3.3882919999999999  2.8003459999999984   F   F   F
  3.6844579999999993  3.3882919999999999  2.8003459999999984   F   F   F
  2.4127064689303452  8.0644612072645803  5.3558983176129420   T   T   T
  8.0710116016453686  8.1773882024929989  5.6872699960362931   T   T   T
  5.3572376053725312  2.9198272394783165  5.6028613083722796   T   T   T
  1.9918110000000000  6.3200430000000001  2.8003459999999984   F   F   F
 13.4753197587934839 12.7329558850839462  5.5955517357752411   T   T   T
  5.9734936130904526  6.4032669442842058 11.1853982664934701   T   T   T
  3.1465566098316304  5.2744342165187765 18.8024398199618474   T   T   T
  7.7539184536232115  2.6816431369178813  5.8422033683168575   T   T   T
  1.8221498033246843  2.6410146690303455  5.5955517357752411   T   T   T
 10.4589484478687833  7.7828159668146570  5.5924256563412769   T   T   T
  0.7711660000000000  8.4342629999999996  2.8003459999999984   F   F   F
  3.6844579999999993  0.5703440000000000  0.8160649999999997   F   F   F
  2.3088139768822264  9.3100907574453924  7.4195682744173048   T   T   T
  4.9042279999999998  2.6830460000000005  0.8160649999999997   F   F   F
  9.5110430000000008  0.5703440000000000  0.8160649999999997   F   F   F
 10.7308129999999977  2.6830460000000005  0.8160649999999997   F   F   F
  1.9737833598681143  4.0440292515814313  7.5683802660545956   T   T   T
 10.7585166256601070  9.0151869668296349  7.6604197917161745   T   T   T
  2.0326270913797049  7.3916995821976723 13.6772942504723840   T   T   T
  7.8175200000000000  7.7290169999999998  0.8160649999999997   F   F   F
  7.6949894996097097  4.3112319881265977  7.6335759665727343   T   T   T
  6.3459163289255534  6.9620969845715184 15.7107524573845989   T   T   T
 22.1121184033375826 17.8747571828682581  5.5924256563412769   T   T   T
 15.5018359571471080 12.9349141528408609 17.7444010078569470   T   T   T
 -1.4983399948526037  1.3127756005053317 21.9057279679295291   T   T   T
  4.9051039999999997  1.2740720000000001  2.8003459999999984   F   F   F
  7.7352615371303468  6.1784052898003692 18.4075930452680652   T   T   T
  8.2912739999999978  2.6830460000000005  0.8160649999999997   F   F   F
  5.9646332158801059  4.7422424479155687 17.5551393404426825   T   T   T
 10.2737262133188239 -0.6678024696531155 16.4338786715763874   T   T   T
  8.2755576605923178 -0.9426035425536333 17.7891478637652796   T   T   T
 10.0481077633249409  6.7046022697767000 18.0071187287806715   T   T   T
  4.7836590864134676  7.7917743940743440  5.5827899047007561   T   T   T
  5.6873727604396747  3.3396350711874199 15.5095917562545669   T   T   T
 -0.9939278861559994  8.2412702821770409 19.7426047580982029   T   T   T
  3.3589660077217562  5.7521171314235904 15.7817538216476194   T   T   T
  8.2053445750932923  7.9790073698454673 12.5121935682854204   T   T   T
 10.3940945763636119 10.6481294483945437 19.5526346780259104   T   T   T
  6.5292186541707595  3.1903556813768805 20.1547445474016946   T   T   T
 11.6588941385427738  0.6989780948833358 14.1001893315496378   T   T   T
  4.1871013752805091  8.1695005576755246 19.3693384776091122   T   T   T
  4.5741780872321094  5.8621595276627207 13.6625010280649573   T   T   T
  3.9208537737661286  8.9142992420044731 15.6482645572752919   T   T   T
  2.2565104548417105  7.8986302737659084 17.5077462691930243   T   T   T
  3.5156375750974846 10.0149699154591012 17.8445272573819658   T   T   T
 13.9927048173359729 14.4496486533069888 12.7657282799366492   T   T   T
 13.6981514036252712 11.8442858891350973 12.4603441650753251   T   T   T
 15.7947683845515812 11.6728027711137337 10.7994155380523580   T   T   T
 16.1869270333881019 14.4816935455523854 11.0012558361849635   T   T   T
 22.5510159312813840 13.6035526903489874 10.9737349844332215   T   T   T
 13.4691357645626777 19.1028606577330393 11.8032442530962225   T   T   T
 22.5438999915631157 13.0429326760549049 15.7924928111550571   T   T   T
 20.1558540289981352 11.8309275524604960 15.6772393986937821   T   T   T
 19.6680602559217554 12.3882294225033611 18.2871837340841630   T   T   T
  6.4539635509994460 13.0559197887980556 13.0761129984874689   T   T   T
  5.3779810000000001  7.7290169999999998  0.8160649999999997   F   F   F
 11.2045659999999998  7.7290169999999998  0.8160649999999997   F   F   F
  6.2862567090110399  2.3414886358933695  7.7670241241634681   T   T   T
  0.4538089376571198  2.1608928837773740  7.5833313817580912   T   T   T
  0.9720014263602937  5.7069194970029367 15.8766176891074853   T   T   T
  1.8720662771060639  3.1737538244958134 19.2223818847736325   T   T   T
  4.1703870947057187  8.6394443824910727 12.5780557615574899   T   T   T
  7.6403928479064618  5.5969323415515877 13.7074197110657447   T   T   T
 13.9999952829816188 13.3798375796581226 10.4888608196669075   T   T   T
  6.5977509999999988  5.6163140000000000  0.8160649999999997   F   F   F
  0.7711660000000000  5.6163140000000000  0.8160649999999997   F   F   F
 11.0883948438897786  2.9879459766272620  5.5436409126951434   T   T   T
  3.2853016353157760  7.0628399281144656  7.3819090325604124   T   T   T
  9.1705395220134793  7.1636795013034060  7.5840451528019894   T   T   T
  8.6342564189154150  7.5246208200741922 14.9237660032348796   T   T   T
 11.4358422036351612  7.6746257779540397 15.1598664857899816   T   T   T
  6.9579054538828879  9.2965057763629950 14.4557179957737567   T   T   T
  5.8737900447034974  9.3045590146106925 17.5482011965781695   T   T   T
  5.2704280334823137  4.5426064275861746  7.4061609184973500   T   T   T
 11.2012291073392394  4.4329597150519282  7.4918022547732557   T   T   T
  2.4638130000000000  1.2740720000000001  2.8003459999999984   F   F   F
  8.2903979999999997  1.2740720000000001  2.8003459999999984   F   F   F
  5.3771050000000002  6.3200430000000001  2.8003459999999984   F   F   F
 11.2036899999999999  6.3200430000000001  2.8003459999999984   F   F   F