F  H  I  N  Si
 1.0000000000000000
    11.6531699554687993    0.0000000000000000    0.0000000000000000
     0.0000000000000000   10.0919412160536002    0.0000000000000000
     0.0000000000000000    0.0000000000000000   37.1189399999999949
 F   H   I   N   Si 
  83  64   7  16   8
Selective dynamics
Cartesian
  7.8175200000000000  7.7290169999999998  0.8160649999999998   F   F   F
  6.5967769999999994  2.2526720000000000  7.4012240000000000   T   T   T
 11.2045659999999998  7.7290169999999998  0.8160649999999998   F   F   F
  5.3779810000000001  7.7290169999999998  0.8160649999999998   F   F   F
  8.2912739999999978  2.6830460000000005  0.8160649999999998   F   F   F
  2.4646889999999999  2.6830460000000005  0.8160649999999998   F   F   F
  7.8183959999999999  6.3200430000000001  2.8003459999999998   F   F   F
  1.9918110000000000  6.3200430000000001  2.8003459999999998   F   F   F
 10.7316889999999994  1.2740720000000001  2.8003459999999998   F   F   F
  4.9051039999999997  1.2740720000000001  2.8003459999999998   F   F   F
  4.9054539999999998  8.0007190000000001  5.4168610000000008   T   T   T
 10.7320379999999993  8.0007190000000001  5.4168610000000008   T   T   T
  1.9921610000000001  2.9547490000000001  5.4168610000000008   T   T   T
  7.8187459999999991  2.9547490000000001  5.4168610000000008   T   T   T
  2.4654680000000000  9.4116809999999997  7.4012250000000002   T   T   T
  8.2920529999999992  9.4116820000000008  7.4012250000000002   T   T   T
  5.3787609999999999  4.3657110000000001  7.4012240000000000   T   T   T
 11.2053449999999994  4.3657110000000001  7.4012240000000000   T   T   T
  0.7701920000000000  2.2526720000000000  7.4012240000000000   T   T   T
  2.4638130000000000  1.2740720000000001  2.8003459999999998   F   F   F
  9.5100689999999997  7.2986420000000001  7.4012240000000000   T   T   T
 11.2023770000000003  2.9564159999999999  5.4168610000000008   T   T   T
  6.5987129999999992  5.0712419999999998  5.4168610000000008   T   T   T
  3.6854209999999994 10.1172120000000003  5.4168610000000008   T   T   T
  7.8177149999999989  4.3640239999999997  7.4012240000000000   T   T   T
  1.9911300000000001  4.3640239999999997  7.4012240000000000   T   T   T
 10.7310070000000000  9.4099950000000003  7.4012240000000000   T   T   T
  4.9044220000000003  9.4099950000000003  7.4012240000000000   T   T   T
  1.6024000000000000  6.8995770000000007 15.3670660000000012   T   T   T
  1.9909349999999999  7.7290169999999998  0.8160649999999998   F   F   F
 10.7308129999999977  2.6830460000000005  0.8160649999999998   F   F   F
  4.9042279999999998  2.6830460000000005  0.8160649999999998   F   F   F
  6.5977509999999988  8.4342629999999996  2.8003459999999998   F   F   F
  0.7711660000000000  8.4342629999999996  2.8003459999999998   F   F   F
  9.5110430000000008  3.3882919999999999  2.8003459999999998   F   F   F
  3.6844579999999993  3.3882919999999999  2.8003459999999998   F   F   F
  2.4624999999999999  8.0023859999999996  5.4168610000000008   T   T   T
  8.2890850000000000  8.0023859999999996  5.4168610000000008   T   T   T
  5.3757929999999998  2.9564159999999999  5.4168610000000008   T   T   T
  3.6834849999999997  7.2986420000000001  7.4012240000000000   T   T   T
  0.7721289999999998  5.0712419999999998  5.4168610000000008   T   T   T
  8.2903979999999997  1.2740720000000001  2.8003459999999998   F   F   F
 11.2036899999999999  6.3200430000000001  2.8003459999999998   F   F   F
 10.4764040000000005  0.3295730000000000 11.1906459999999992   T   T   T
 11.6985979999999987  2.3519920000000001  9.9149050000000010   T   T   T
 10.7779710000000009  2.5779619999999994 12.2175250000000002   T   T   T
  2.3505460000000000  2.1839629999999999 14.4784559999999995   T   T   T
  1.7291770000000000  2.8089879999999998 17.0151269999999997   T   T   T
  0.0188040000000000  0.7406899999999998 17.1057829999999989   T   T   T
  0.6401730000000000  0.1156650000000000 14.5691120000000005   T   T   T
  2.3693100000000000  0.5057469999999999 16.3179979999999993   T   T   T
  3.6016859999999999  7.7673059999999996 13.9087860000000010   T   T   T
  5.8610709999999999  6.8743160000000012 15.0529869999999999   T   T   T
  5.9981400000000002  4.8980579999999998 13.2399590000000007   T   T   T
  3.7387540000000001  5.7910490000000001 12.0957569999999990   T   T   T
  5.6666790000000002  7.2827489999999999 12.6042999999999985   T   T   T
  2.6185939999999999  4.7868149999999998 14.5278609999999997   T   T   T
 -0.0257060000000000  5.2495940000000001 14.4573929999999997   T   T   T
  0.0283550000000000  5.9530409999999998 17.0484729999999978   T   T   T
  2.6726549999999998  5.4902620000000004 17.1189399999999985   T   T   T
  8.4112559999999998  1.9445580000000000 11.7723990000000001   T   T   T
  5.3771050000000002  6.3200430000000001  2.8003459999999998   F   F   F
  9.6334499999999998  3.9669780000000001 10.4966580000000000   T   T   T
  2.4568800000000000  9.9766999999999992  9.9492760000000011   T   T   T
  3.6844579999999993  0.5703440000000000  0.8160649999999998   F   F   F
  9.5110430000000008  0.5703440000000000  0.8160649999999998   F   F   F
  0.7711660000000000  5.6163140000000000  0.8160649999999998   F   F   F
  6.5977509999999988  5.6163140000000000  0.8160649999999998   F   F   F
  8.2145390000000003  2.3710760000000000 17.0583379999999991   T   T   T
  7.4553319999999994  4.2809090000000003 15.3298719999999999   T   T   T
  5.2755660000000004  2.8444330000000000 14.7001019999999993   T   T   T
  6.0347729999999995  0.9346000000000000 16.4285679999999985   T   T   T
  5.9217560000000002  3.3425650000000000 17.0527559999999987   T   T   T
 10.2739519999999995  7.4073209999999996 15.1994900000000008   T   T   T
 10.3309289999999994 10.0813740000000003 14.9593970000000009   T   T   T
  8.1157350000000008  9.9925110000000004 13.4439849999999996   T   T   T
  8.0587579999999992  7.3184570000000004 13.6840780000000013   T   T   T
  8.2848819999999996  8.8380069999999993 15.6438009999999981   T   T   T
  5.1344099999999999  9.7734539999999992  9.9805010000000003   T   T   T
  5.1082070000000002  9.8406730000000007 12.6649469999999997   T   T   T
  2.4306760000000001 10.0439179999999997 12.6337220000000006   T   T   T
  3.6601990000000000  8.3029270000000004 11.3461249999999989   T   T   T
  9.5120050000000003 10.1172120000000003  5.4168610000000008   T   T   T
  1.6127180000000001  0.7827480000000000  4.7083020000000007   T   T   T
  0.7711660000000000  0.2968220000000000  6.0756550000000002   T   T   T
  6.5977509999999988  0.2968220000000000  6.0756550000000002   T   T   T
  3.6838090000000001  0.9934269999999999  7.9216669999999993   T   T   T
  9.5110430000000008  5.3427920000000011  1.3692119999999999   F   F   F
  3.6844579999999993  5.3427920000000011  1.3692119999999999   F   F   F
  6.5977509999999988  0.2968220000000000  1.3692119999999999   F   F   F
  0.7711660000000000  0.2968220000000000  1.3692119999999999   F   F   F
  8.6701080000000008  4.8572780000000000  0.0000000000000000   F   F   F
  2.8435229999999998  4.8572780000000000  0.0000000000000000   F   F   F
 11.5833999999999993  9.9032490000000006  0.0000000000000000   F   F   F
  5.7568149999999996  9.9032490000000006  0.0000000000000000   F   F   F
  6.5977509999999988  4.6281119999999998  3.3038509999999994   F   F   F
  9.5110430000000008  1.9788120000000000  6.5902830000000003   T   T   T
  0.7711660000000000  7.0247830000000011  6.5902830000000003   T   T   T
  3.6844579999999993  5.3427920000000011  6.0756550000000002   T   T   T
  6.5971019999999987  6.0393980000000003  7.9216660000000001   T   T   T
  2.8314140000000001  2.4720659999999999  7.9216660000000001   T   T   T
  7.4393029999999998  0.7827480000000000  4.7083020000000007   T   T   T
  4.5260109999999996  5.8287180000000003  4.7083020000000007   T   T   T
 10.3525960000000001  5.8287190000000004  4.7083020000000007   T   T   T
  0.7711660000000000  4.6281119999999998  3.3038509999999994   F   F   F
  9.5110430000000008  9.6740829999999995  3.3038509999999994   F   F   F
  8.6694420000000001  5.8286350000000002  4.7083020000000007   T   T   T
  6.5977509999999988  3.6608019999999999  1.9334300000000000   F   F   F
  0.7711660000000000  3.6608019999999999  1.9334300000000000   F   F   F
  1.6121010000000000  9.9032490000000006  0.0000000000000000   F   F   F
  9.5110430000000008  8.7067730000000001  1.9334300000000000   F   F   F
  3.6844579999999993  8.7067730000000001  1.9334300000000000   F   F   F
 10.3519780000000008  4.8572780000000000  0.0000000000000000   F   F   F
  6.5977509999999988  7.0247830000000011  6.5902830000000003   T   T   T
  4.5253930000000002  4.8572780000000000  0.0000000000000000   F   F   F
  9.5110430000000008  5.3427920000000011  6.0756550000000002   T   T   T
  2.8467430000000000  8.2231179999999995  3.3038509999999994   F   F   F
  8.6733279999999997  8.2231179999999995  3.3038509999999994   F   F   F
  5.7600360000000004  3.1771470000000002  3.3038509999999994   F   F   F
 11.5866209999999992  3.1771470000000002  3.3038509999999994   F   F   F
  4.5381510000000000  2.4709420000000000  7.9216660000000001   T   T   T
  9.5103939999999998  0.9934280000000000  7.9216669999999993   T   T   T
 10.3647360000000006  2.4709430000000001  7.9216669999999993   T   T   T
  1.6248579999999999  7.5169130000000006  7.9216660000000001   T   T   T
  7.4514429999999994  7.5169130000000006  7.9216660000000001   T   T   T
  3.6844579999999993  9.6740829999999995  3.3038509999999994   F   F   F
  8.6579999999999995  2.4720659999999999  7.9216660000000001   T   T   T
  0.7705170000000000  6.0393980000000003  7.9216660000000001   T   T   T
  5.7447070000000000  7.5180369999999996  7.9216660000000001   T   T   T
 11.5712919999999997  7.5180369999999996  7.9216669999999993   T   T   T
  9.5110910000000004  4.3710240000000002  4.7083020000000007   T   T   T
  3.6844579999999993  1.9788120000000000  6.5902830000000003   T   T   T
  1.6088800000000001  3.1771470000000002  3.3038509999999994   F   F   F
 10.3487580000000001  8.2231179999999995  3.3038509999999994   F   F   F
  4.5221730000000004  8.2231179999999995  3.3038509999999994   F   F   F
  6.5977989999999993  9.4169940000000008  4.7083020000000007   T   T   T
  0.7712139999999998  9.4169940000000008  4.7083020000000007   T   T   T
  3.6845059999999998  4.3710230000000001  4.7083020000000007   T   T   T
  3.6844579999999993  6.3138210000000008  0.0000000000000000   F   F   F
  9.5110430000000008  6.3138210000000008  0.0000000000000000   F   F   F
  0.7711660000000000  1.2678499999999999  0.0000000000000000   F   F   F
  6.5977509999999988  1.2678499999999999  0.0000000000000000   F   F   F
  5.7561499999999999  0.7826650000000001  4.7083020000000007   T   T   T
 11.5827349999999996  0.7826650000000001  4.7083020000000007   T   T   T
  2.8428580000000001  5.8286350000000002  4.7083020000000007   T   T   T
  7.4354649999999989  3.1771470000000002  3.3038509999999994   F   F   F
  7.4386859999999997  9.9032490000000006  0.0000000000000000   F   F   F
  1.2825530000000001  5.1455139999999995 15.8499460000000010   T   T   T
  6.8658380000000001  2.4999509999999998 15.7070509999999999   T   T   T
  9.9488489999999992  2.0852360000000001 10.6420919999999999   T   T   T
  1.0108779999999999  1.6026660000000001 15.7149679999999989   T   T   T
  4.6727499999999997  6.1932990000000006 13.7166910000000009   T   T   T
  9.3283439999999995  8.6796559999999996 14.1277779999999993   T   T   T
  3.8004920000000002 10.1442660000000000 11.3013879999999993   T   T   T
  6.5977509999999988  3.6608019999999999  2.9597560000000001   F   F   F
  6.5977509999999988  0.2968220000000000  0.3425450000000000   F   F   F
  3.6844589999999995  1.9788120000000000  7.6208779999999994   T   T   T
  9.5110419999999998  1.9788120000000000  7.6208779999999994   T   T   T
  0.7711660000000000  7.0247820000000001  7.6208779999999994   T   T   T
  0.7711660000000000  3.6608019999999999  2.9597560000000001   F   F   F
  6.5977509999999988  7.0247820000000001  7.6208779999999994   T   T   T
  0.7711670000000000  0.2968210000000000  5.0474070000000006   T   T   T
  0.7711660000000000  0.2968220000000000  0.3425450000000000   F   F   F
  3.6844579999999993  8.7067730000000001  2.9597560000000001   F   F   F
  9.5110430000000008  5.3427920000000011  0.3425450000000000   F   F   F
  3.6844579999999993  5.3427920000000011  0.3425450000000000   F   F   F
  6.5977509999999988  0.2968220000000000  5.0474080000000008   T   T   T
  9.5110430000000008  8.7067730000000001  2.9597560000000001   F   F   F
  9.5110430000000008  5.3427920000000011  5.0474080000000008   T   T   T
  3.6844579999999993  5.3427930000000012  5.0474080000000008   T   T   T
  9.5110430000000008  1.9788120000000000  1.8016859999999999   F   F   F
  6.5977499999999996  3.6608019999999999  6.4203420000000007   T   T   T
  0.7711660000000000  3.6608019999999999  6.4203420000000007   T   T   T
  3.6844579999999993  8.7067730000000001  6.4203420000000007   T   T   T
  6.5977509999999988  7.0247830000000011  1.8016859999999999   F   F   F
  0.7711660000000000  7.0247830000000011  1.8016859999999999   F   F   F
  3.6844579999999993  1.9788120000000000  1.8016859999999999   F   F   F
  9.5110430000000008  8.7067730000000001  6.4203420000000007   T   T   T
