H  N  F  Si I 
 1.0000000000000000
    11.6531699554687993    0.0000000000000000    0.0000000000000000
     0.0000000000000000   10.0919412160536002    0.0000000000000000
     0.0000000000000000    0.0000000000000000   37.1189399999999949
 H   N   F   Si  I  
  64  16  83   8   7
Selective dynamics
Cartesian
  8.6733279999999997  8.2231179999999995  3.3038509999999990   F   F   F
  9.5110430000000008  8.7067730000000001  1.9334300000000000   F   F   F
  1.6121010000000000  9.9032490000000006  0.0000000000000000   F   F   F
  0.7711660000000000  3.6608019999999999  1.9334300000000000   F   F   F
  6.5977509999999988  3.6608019999999999  1.9334300000000000   F   F   F
  9.0618129604058204  6.2381312472976171  5.0905269474942836   T   T   T
  9.5110430000000008  9.6740829999999995  3.3038509999999990   F   F   F
  0.7711660000000000  4.6281119999999998  3.3038509999999990   F   F   F
 11.5866209999999992  3.1771470000000002  3.3038509999999990   F   F   F
  5.7600360000000004  3.1771470000000002  3.3038509999999990   F   F   F
  3.6844579999999993  8.7067730000000001  1.9334300000000000   F   F   F
  2.8467430000000000  8.2231179999999995  3.3038509999999990   F   F   F
  9.1470531036440459  4.9032961777907582  6.0823536686809465   T   T   T
  4.5253930000000002  4.8572780000000000  0.0000000000000000   F   F   F
  6.6935974342877866  6.3428059765622340  7.1649940400004679   T   T   T
 10.3519780000000008  4.8572780000000000  0.0000000000000000   F   F   F
  6.5977509999999988  4.6281119999999998  3.3038509999999990   F   F   F
 10.0254719133636030  2.6976154621467945  8.2605963081525857   T   T   T
  3.6844579999999993  9.6740829999999995  3.3038509999999990   F   F   F
  3.6844579999999993  5.3427920000000011  1.3692119999999999   F   F   F
  7.4354649999999989  3.1771470000000002  3.3038509999999990   F   F   F
  3.2814261184196556  5.7807493570608965  4.3675741501899443   T   T   T
  5.7568149999999996  9.9032490000000006  0.0000000000000000   F   F   F
 11.5833999999999993  9.9032490000000006  0.0000000000000000   F   F   F
  2.8435229999999998  4.8572780000000000  0.0000000000000000   F   F   F
  8.6701080000000008  4.8572780000000000  0.0000000000000000   F   F   F
  0.7711660000000000  0.2968220000000000  1.3692119999999999   F   F   F
  6.5977509999999988  0.2968220000000000  1.3692119999999999   F   F   F
  1.2444717171590556  6.0909452860560984  8.1861770852930089   T   T   T
 10.5493702523940929  5.4385418566119696  5.3138132500032560   T   T   T
  4.7036943065753727  5.2428043138814431  5.1405687514971188   T   T   T
  7.1251086576092222  0.3994169617498081  4.3932797854450270   T   T   T
  4.2896873799000828  2.8743182154248612  8.0782997557146672   T   T   T
  6.7156764526387507  6.3915297268247402  8.8215620962371784   T   T   T
  3.4590547085456138  5.9163564151808199  6.0232929283243566   T   T   T
  0.9554462736746243  7.0895714708297897  6.8928354043289355   T   T   T
  9.8057989585607395  2.1463523652931853  6.7175706356454450   T   T   T
  7.4386859999999997  9.9032490000000006  0.0000000000000000   F   F   F
  1.7571484843110174  0.2358674187835196  5.0616809511800049   T   T   T
  0.6033668732756112  0.8811735524546124  6.0589583947745593   T   T   T
  7.1302378310246928  0.1731682258687444  6.0511057957510568   T   T   T
  2.8714518178201849  2.0846338121020347  7.5862875199770485   T   T   T
  9.5110430000000008  5.3427920000000011  1.3692119999999999   F   F   F
  7.0136593851314952  7.8106238578431091  7.9253278021985816   T   T   T
  0.3196030435836503  9.4632149009666335  5.3521088765569784   T   T   T
  3.2304523485477952  4.3992735832660008  5.3220915378904188   T   T   T
  3.6844579999999993  6.3138210000000008  0.0000000000000000   F   F   F
  9.5110430000000008  6.3138210000000008  0.0000000000000000   F   F   F
  0.7711660000000000  1.2678499999999999  0.0000000000000000   F   F   F
  6.5977509999999988  1.2678499999999999  0.0000000000000000   F   F   F
  5.9289338465661752  1.1087356251854446  5.3381694868779039   T   T   T
  5.4424930055052370  7.1183562320276392  7.9735910389882267   T   T   T
  1.2860197058052081  7.8033544361520102  8.3364973883022824   T   T   T
  9.9668482706538821  1.0214063512942033  7.9440534050165352   T   T   T
  8.5555634256149720  1.9759558614960546  7.8308015337812593   T   T   T
  3.2505584939452676  2.1209055166220625  9.1918560407601024   T   T   T
  5.9510778673006541  9.5062383446913135  5.1507697506112491   T   T   T
  4.5221730000000004  8.2231179999999995  3.3038509999999990   F   F   F
  1.6088800000000001  3.1771470000000002  3.3038509999999990   F   F   F
 11.9223252311984211  0.7678179305379542  4.4167150785990108   T   T   T
 11.4459240608474246  6.9994323140102930  8.0764618091409268   T   T   T
  9.3365257683264478  4.6834834780538390  4.4315236295273523   T   T   T
  4.1702365459708730  1.1654539622517190  8.1322399686725308   T   T   T
 10.3487580000000001  8.2231179999999995  3.3038509999999990   F   F   F
  0.7711660000000000  0.2968220000000000  0.3425450000000000   F   F   F
  0.7351319610704236  0.3103401144568081  5.2096064230177985   T   T   T
  6.4684569723418663  6.9274506570808745  7.9833382990697510   T   T   T
  3.6736718716859906  5.3314603333706962  5.2043429256975857   T   T   T
  9.5244246366392442  5.3189572222182893  5.2161369789694820   T   T   T
  3.6844579999999993  8.7067730000000001  2.9597560000000001   F   F   F
  9.5110430000000008  5.3427920000000011  0.3425450000000000   F   F   F
  3.6844579999999993  5.3427920000000011  0.3425450000000000   F   F   F
  6.5977509999999988  3.6608019999999999  2.9597560000000001   F   F   F
  6.5977509999999988  0.2968220000000000  0.3425450000000000   F   F   F
  3.6604762478715442  2.0614384125353511  8.2473437891683901   T   T   T
  9.5847593391545800  1.9552911609145707  7.7046406204171669   T   T   T
  0.8145476849785551  6.9905840107396378  7.9104117077918392   T   T   T
  0.7711660000000000  3.6608019999999999  2.9597560000000001   F   F   F
  6.5309985139440769  0.2717630706648706  5.2211631938819991   T   T   T
  9.5110430000000008  8.7067730000000001  2.9597560000000001   F   F   F
  6.5977509999999988  8.4342629999999996  2.8003459999999998   F   F   F
  4.7713620307554079  9.5567843587870591  7.5709912477672763   T   T   T
 10.5437443706279570  9.4809332197946130  7.7075360241143622   T   T   T
  1.9399968456571830  4.4235623122630221  7.5524140240609841   T   T   T
  7.8581928849041969  4.3975152354188101  7.4414637372077896   T   T   T
  3.7859159783350189  7.3018281819478350  7.5255306188761626   T   T   T
  5.4105873889012708  2.7912193133643175  5.6449332397000065   T   T   T
  8.4491463111374436  7.8043441101568565  5.5435870454160998   T   T   T
  2.4418866826187533  7.9455247765553061  5.6305756442038275   T   T   T
  3.6844579999999993  3.3882919999999999  2.8003459999999998   F   F   F
  9.5110430000000008  3.3882919999999999  2.8003459999999998   F   F   F
  0.7711660000000000  8.4342629999999996  2.8003459999999998   F   F   F
  0.6154838923165709  5.8273251266566479 14.3185350608209347   T   T   T
  0.6201760052645227  1.6766643471190719 16.7742764160534783   T   T   T
  1.2164294712533239  0.2720837415828434 14.5037401399096293   T   T   T
 10.1505488870309986  2.4981070060221926 12.4995126127617642   T   T   T
  8.9579279912083258  2.0915152669416055 10.3427957419841530   T   T   T
  7.9335054410267816  1.3807883452426351 12.7374855594366725   T   T   T
 11.2036899999999999  6.3200430000000001  2.8003459999999998   F   F   F
  8.2903979999999997  1.2740720000000001  2.8003459999999998   F   F   F
  4.7704818490991867  7.0839879273816075 10.5845212564813593   T   T   T
  3.6643915713002690  4.9005443137168152 10.1518804863849095   T   T   T
  6.1686210802234553  5.1204964271636726 11.2311371255352004   T   T   T
  3.4443087113765469 10.1529329811835414  5.6090375926247171   T   T   T
 11.2045659999999998  7.7290169999999998  0.8160649999999998   F   F   F
 10.7316889999999994  1.2740720000000001  2.8003459999999998   F   F   F
  4.1053743210360389 10.7459006763303861 10.8952567735298178   T   T   T
  1.9621081117944801  9.6908831118041139 11.6098117811408059   T   T   T
  1.9918110000000000  6.3200430000000001  2.8003459999999998   F   F   F
  7.8183959999999999  6.3200430000000001  2.8003459999999998   F   F   F
  2.4646889999999999  2.6830460000000005  0.8160649999999998   F   F   F
  8.2912739999999978  2.6830460000000005  0.8160649999999998   F   F   F
  5.3779810000000001  7.7290169999999998  0.8160649999999998   F   F   F
  7.8175200000000000  7.7290169999999998  0.8160649999999998   F   F   F
  0.6326708017555718  5.1393811875020896  5.6174201396786279   T   T   T
  6.4154257360386806  5.0149126568959099  5.6046626452070303   T   T   T
 11.2263424578231543  2.9626225858582420  5.5358077410560913   T   T   T
  9.6135171761922695  7.2510978268408186  7.6146614245165889   T   T   T
  2.4638130000000000  1.2740720000000001  2.8003459999999998   F   F   F
  0.8867628897003792  2.1990173602799477  7.4114436922771150   T   T   T
 11.1842044219144761  4.2435154167092808  7.6058726223478201   T   T   T
  5.4265736996938623  4.1547921177529012  7.6469565047035033   T   T   T
  4.9042279999999998  2.6830460000000005  0.8160649999999998   F   F   F
 10.7308129999999977  2.6830460000000005  0.8160649999999998   F   F   F
  1.9909349999999999  7.7290169999999998  0.8160649999999998   F   F   F
  5.1483662147263844  3.3895533701184446 17.0283776178415351   T   T   T
  9.5110430000000008  0.5703440000000000  0.8160649999999998   F   F   F
  3.6844579999999993  0.5703440000000000  0.8160649999999998   F   F   F
  4.0213537602047893 10.1274471695191970 13.2883178920227767   T   T   T
  4.1736174655308442 12.7030451551505781 12.4581439987672944   T   T   T
  8.6386432812742076  7.5992124801923806 15.4418892895874116   T   T   T
  9.6624693305957337  8.8462381076920664 13.5392494617105399   T   T   T
  5.1292147871528213  6.9102621251891536 13.0219987972641515   T   T   T
  7.4230282874998021  9.4660759392142300 16.5447793452622243   T   T   T
 10.1022489827773754  9.5247897053600266 16.1260793825779452   T   T   T
  7.0118335597651926  8.7936738024616794 13.9797585603876939   T   T   T
  9.4077372675097610 10.0273201307326651  5.6294403781395372   T   T   T
  6.8315421819798781  2.1764894151097050  7.5468722139205298   T   T   T
  8.1103304753025487  9.1874975251310715  7.5050414871950721   T   T   T
  2.3661638251610895  9.2995858200194945  7.6457153941703044   T   T   T
  7.8052626782377237  3.0013433188961387  5.4729108713299803   T   T   T
  2.0094578673603833  3.1434685938833455  5.5006808953233257   T   T   T
 10.8634715539457289  8.1027320593570717  5.7070370046153043   T   T   T
  4.8646181711365957  8.1911891620982811  5.5584743416763409   T   T   T
  4.9051039999999997  1.2740720000000001  2.8003459999999998   F   F   F
  2.8772391048996617  4.9923042155961594 14.9512432000850932   T   T   T
  2.7109888670556361  6.6403841282981002 11.9273384841452774   T   T   T
  2.9242182609678014  0.9358857832510667 16.2135942368396542   T   T   T
  2.5704570001673965 -1.5204504179281078 16.0141659261385563   T   T   T
  1.9529599292377573 -0.1696265298049869 18.2429731641966519   T   T   T
  2.1312568896204471 12.2333395823779689 10.7281588572754600   T   T   T
  9.4696300882798745  4.5488679157751832 11.2595739226221507   T   T   T
  5.3771050000000002  6.3200430000000001  2.8003459999999998   F   F   F
  8.4547729032332857  3.9170696510148413 13.6805012093657279   T   T   T
  0.7711660000000000  5.6163140000000000  0.8160649999999998   F   F   F
  1.0186314693266949  5.6943099232966654 16.7902476089934645   T   T   T
  6.5977509999999988  5.6163140000000000  0.8160649999999998   F   F   F
  7.4182534672512279  2.6868044738727721 17.8093411722387991   T   T   T
  6.7242844125555905  5.2659849991865562 17.5001743235337663   T   T   T
  5.7929736735122539  4.7073703384675207 15.0175629381143949   T   T   T
  6.4941244403123655  2.1201725319407716 15.3601493525347319   T   T   T
 -0.8120925663529078  4.1872394888180189 15.5226165060879850   T   T   T
  1.1053471643769441  3.4384715116397158 13.6840579459329028   T   T   T
  3.6035415306091982  8.7632325923900787  6.6111753807036866   T   T   T
  9.4990107797232657  8.6436615668687686  6.6359091510678860   T   T   T
  9.5110430000000008  1.9788120000000000  1.8016859999999999   F   F   F
  6.6283608613112692  3.5751612189908837  6.5786246792323455   T   T   T
  0.7571265077288184  3.6910391964585361  6.5676715997714741   T   T   T
  6.5977509999999988  7.0247830000000011  1.8016859999999999   F   F   F
  0.7711660000000000  7.0247830000000011  1.8016859999999999   F   F   F
  3.6844579999999993  1.9788120000000000  1.8016859999999999   F   F   F
  1.3848869925906377 -0.0859038639881053 16.4199785702226997   T   T   T
  1.0939807764596328  4.3897821207658474 15.3847781989662042   T   T   T
  6.8294248677963791  3.7545074844526227 16.3279564240974260   T   T   T
  8.4756909924882216  3.0692433744245480 11.9419769009298484   T   T   T
  2.8956427670241260 11.2343888197459876 12.2326765502388266   T   T   T
  8.5115460542595738  9.3930527196653202 14.9739767248224780   T   T   T
  4.3606306362201641  5.6988543511285901 11.7761034784703380   T   T   T
