F  H  I  N  Si
 1.0000000000000000
    11.6531699554687993    0.0000000000000000    0.0000000000000000
     0.0000000000000000   10.0919412160536002    0.0000000000000000
     0.0000000000000000    0.0000000000000000   37.1189399999999949
 F   H   I   N   Si 
  83  64   7  16   8
Selective dynamics
Cartesian
  7.8175200000000000  7.7290169999999998  0.8160649999999998   F   F   F
  6.7406087649320074  2.2761181121388256  7.3024465485860013   T   T   T
 11.2045659999999998  7.7290169999999998  0.8160649999999998   F   F   F
  5.3779810000000001  7.7290169999999998  0.8160649999999998   F   F   F
  8.2912739999999978  2.6830460000000005  0.8160649999999998   F   F   F
  2.4646889999999999  2.6830460000000005  0.8160649999999998   F   F   F
  7.8183959999999999  6.3200430000000001  2.8003459999999998   F   F   F
  1.9918110000000000  6.3200430000000001  2.8003459999999998   F   F   F
 10.7316889999999994  1.2740720000000001  2.8003459999999998   F   F   F
  4.9051039999999997  1.2740720000000001  2.8003459999999998   F   F   F
  4.9250010697999844  8.2475731632493243  5.5976035139400233   T   T   T
 10.9886216012240450  7.9834582091176065  5.5593350306185254   T   T   T
  1.9992570201741817  3.0296173220390274  5.5508716928093405   T   T   T
  7.9417098984450725  3.0118189705320328  5.3548739157669951   T   T   T
  2.2525067741877147  9.5686258170249285  7.2900657857776014   T   T   T
  8.1024342560866280  9.2899167262043800  7.2115622068225260   T   T   T
  5.6393457518365153  4.4495280386499863  7.4508375892410150   T   T   T
 11.0487537705617029  4.3172634226823261  7.3959814992643089   T   T   T
  0.6807222539141031  2.2458217039407962  7.3930181451437891   T   T   T
  2.4638130000000000  1.2740720000000001  2.8003459999999998   F   F   F
  9.5552956079825293  7.3595344965544864  7.4859250163820850   T   T   T
 11.1724690508742430  3.0466689330052708  5.3713437295648196   T   T   T
  6.7826812619557302  5.1738359257707423  5.3990577165677509   T   T   T
  3.6605823730280393 10.3405031327849173  5.4188922873096006   T   T   T
  8.0492545661387975  4.4228047625193483  7.3868307165285065   T   T   T
  1.8502429638121280  4.4321864252988874  7.5795541426438451   T   T   T
 10.6110276955039673  9.4615813020184572  7.5142666236610447   T   T   T
  4.6230122477944180  9.6572010352665849  7.6145457181994169   T   T   T
  1.1034789302154029  5.7754761439800788 14.6897969714964507   T   T   T
  1.9909349999999999  7.7290169999999998  0.8160649999999998   F   F   F
 10.7308129999999977  2.6830460000000005  0.8160649999999998   F   F   F
  4.9042279999999998  2.6830460000000005  0.8160649999999998   F   F   F
  6.5977509999999988  8.4342629999999996  2.8003459999999998   F   F   F
  0.7711660000000000  8.4342629999999996  2.8003459999999998   F   F   F
  9.5110430000000008  3.3882919999999999  2.8003459999999998   F   F   F
  3.6844579999999993  3.3882919999999999  2.8003459999999998   F   F   F
  2.4989389198812528  8.1828259312645386  5.3440733165446028   T   T   T
  8.5554617454218072  7.8340208522658141  5.3061973141920955   T   T   T
  5.4891878971051504  3.1442463738357254  5.4324541264542860   T   T   T
  3.4949746152404910  7.4467781192412126  7.3253194072941481   T   T   T
  0.7835959915861470  5.0918302239478717  5.5295207593308415   T   T   T
  8.2903979999999997  1.2740720000000001  2.8003459999999998   F   F   F
 11.2036899999999999  6.3200430000000001  2.8003459999999998   F   F   F
  7.9376183394551978  1.2233938230092054 11.8145143989965451   T   T   T
  9.8506612564959468  2.2204460233679781 10.2768313602586634   T   T   T
 10.1785734585030152  2.0822303631687054 12.7183838849636341   T   T   T
  1.2317417695430244  0.0681012044284113 14.6610084634391882   T   T   T
  0.2681879542542137  1.4710274427819301 16.8722501427471201   T   T   T
  1.7722341686483158 -0.0691796003213266 18.4807593578825617   T   T   T
  2.8437439218943137 -1.3591336969925296 16.1842816628082780   T   T   T
  2.7321140319243225  1.1486958580186091 16.3336154515144507   T   T   T
  2.8459942201181843  6.7376643959994453 11.0463187413985118   T   T   T
  5.5550946040246147  7.3003541511550605 11.9157697113127856   T   T   T
  6.2734805951478219  5.2891089506689966 10.3463741196454642   T   T   T
  3.8631899583802509  4.7407878493899460  9.6895885207431878   T   T   T
  4.7130319451694973  7.0994504468082029  9.5575180949912113   T   T   T
  0.9410656307958724  3.5746786016397496 13.3718581451119292   T   T   T
 -1.1220339342297287  4.4954497899154173 14.9270196694815063   T   T   T
  0.5082272566376057  4.8651667907611911 16.9380978164385212   T   T   T
  2.6375993408215082  4.0006065399042976 15.4753132787506829   T   T   T
  8.0398434385484201  3.2977043784535973 13.5010231514632100   T   T   T
  5.3771050000000002  6.3200430000000001  2.8003459999999998   F   F   F
 10.0353326466555419  4.4338411374297655 11.9412837073201690   T   T   T
  2.4849450878303641 12.7045802997633857 10.1139022541706236   T   T   T
  3.6844579999999993  0.5703440000000000  0.8160649999999998   F   F   F
  9.5110430000000008  0.5703440000000000  0.8160649999999998   F   F   F
  0.7711660000000000  5.6163140000000000  0.8160649999999998   F   F   F
  6.5977509999999988  5.6163140000000000  0.8160649999999998   F   F   F
  6.8586411967204786  2.3118815052392714 17.6297575019618229   T   T   T
  7.0873288554215206  4.9813825737370570 17.0708454225014847   T   T   T
  5.5425055833891514  4.7634599278497083 14.9488365916421699   T   T   T
  5.1873864625438486  2.1619606529977697 15.3806456659757238   T   T   T
  4.8912768631044203  3.7815813329455099 17.2474260254744607   T   T   T
 10.2090933396773540  8.7226944599032130 16.8477361684422391   T   T   T
  7.8556500474947430  9.9671316569961803 16.5003423784999796   T   T   T
  7.8035120920905925  9.1518325344884097 13.8931269323156350   T   T   T
 10.2860573017523826  8.0237042326151879 14.3282716576524045   T   T   T
  8.3040922205107108  7.6294276551453555 15.7717787099869415   T   T   T
  4.3755605736262693 12.8969693999716064 11.8363884248388409   T   T   T
  3.4981626561514618 10.4113523460195232 13.0193898331058140   T   T   T
  1.5393826684754071 10.3806377603042144 11.2878339768319158   T   T   T
  3.9400605529187307 10.7377117327672842 10.6210082304098439   T   T   T
  9.6045124750958806 10.0576078694961915  5.4760281352988143   T   T   T
  1.5711052924949795  0.6377394004162423  4.5264207707289463   T   T   T
  0.9263725301583022  0.5748011227185051  6.1116457626822598   T   T   T
  7.0749084392482393  0.1379425962432367  5.9736419793938147   T   T   T
  3.3386226317098138  2.2722658377356724  6.6577596272749364   T   T   T
  9.5110430000000008  5.3427920000000011  1.3692119999999999   F   F   F
  3.6844579999999993  5.3427920000000011  1.3692119999999999   F   F   F
  6.5977509999999988  0.2968220000000000  1.3692119999999999   F   F   F
  0.7711660000000000  0.2968220000000000  1.3692119999999999   F   F   F
  8.6701080000000008  4.8572780000000000  0.0000000000000000   F   F   F
  2.8435229999999998  4.8572780000000000  0.0000000000000000   F   F   F
 11.5833999999999993  9.9032490000000006  0.0000000000000000   F   F   F
  5.7568149999999996  9.9032490000000006  0.0000000000000000   F   F   F
  6.5977509999999988  4.6281119999999998  3.3038509999999990   F   F   F
  9.9234154490375843  2.1354776469643513  6.5636178356860224   T   T   T
  0.8028072254848725  7.4144307170625927  6.8199774270594542   T   T   T
  3.4894317511889037  6.1648529677774420  6.0223345306614222   T   T   T
  7.0755931915492916  6.4927906625471516  8.1702002419389927   T   T   T
  4.4331544742186706  2.9277948517060701  7.7158032434335393   T   T   T
  7.4399554753842985  0.8149564810990455  4.4806921147872583   T   T   T
  4.7102728785579115  5.3701904669159148  5.1987380596443122   T   T   T
 10.4132264082305301  5.8482969103179459  4.9091962783010619   T   T   T
  0.7711660000000000  4.6281119999999998  3.3038509999999990   F   F   F
  9.5110430000000008  9.6740829999999995  3.3038509999999990   F   F   F
  8.7568323798805299  5.7753657742514246  4.7902470394793362   T   T   T
  6.5977509999999988  3.6608019999999999  1.9334300000000000   F   F   F
  0.7711660000000000  3.6608019999999999  1.9334300000000000   F   F   F
  1.6121010000000000  9.9032490000000006  0.0000000000000000   F   F   F
  9.5110430000000008  8.7067730000000001  1.9334300000000000   F   F   F
  3.6844579999999993  8.7067730000000001  1.9334300000000000   F   F   F
 10.3519780000000008  4.8572780000000000  0.0000000000000000   F   F   F
  6.5870765442386467  6.5365750962948033  6.5587967307235475   T   T   T
  4.5253930000000002  4.8572780000000000  0.0000000000000000   F   F   F
  9.4781166988007257  4.9292621813122857  6.0195135033540401   T   T   T
  2.8467430000000000  8.2231179999999995  3.3038509999999990   F   F   F
  8.6733279999999997  8.2231179999999995  3.3038509999999990   F   F   F
  5.7600360000000004  3.1771470000000002  3.3038509999999990   F   F   F
 11.5866209999999992  3.1771470000000002  3.3038509999999990   F   F   F
  2.9662435689162674  2.3036188445516284  8.3105138740024298   T   T   T
  8.5837961961155660  1.7154503930074079  7.4517579519753649   T   T   T
 10.0956976475091320  0.9206742275396379  7.7424997145757661   T   T   T
  1.5029959595021312  7.6556017862704993  8.3139062806308228   T   T   T
  6.9810097473040642  7.9830557696409015  7.3437576420855555   T   T   T
  3.6844579999999993  9.6740829999999995  3.3038509999999990   F   F   F
  9.8165451836238056  2.5704917819165982  8.1452451819171525   T   T   T
  1.1761790600112030  6.0488708045982849  7.7691369841773223   T   T   T
  5.6028976159316359  7.1155135779127328  7.8097461760141167   T   T   T
 11.5039920163838829  7.0980596173453954  8.0945094308954779   T   T   T
  9.6439756124762930  4.4395634758980718  4.4177025472955860   T   T   T
  4.1561568869787262  1.2499323829093683  7.6820244982254842   T   T   T
  1.6088800000000001  3.1771470000000002  3.3038509999999990   F   F   F
 10.3487580000000001  8.2231179999999995  3.3038509999999990   F   F   F
  4.5221730000000004  8.2231179999999995  3.3038509999999990   F   F   F
  6.4723404842548886  9.5397552744428200  4.5993504560419973   T   T   T
  0.6166036836695891  9.4532849756329718  5.0043810516370657   T   T   T
  3.1411799002927090  4.6801003911780246  5.3578767418941284   T   T   T
  3.6844579999999993  6.3138210000000008  0.0000000000000000   F   F   F
  9.5110430000000008  6.3138210000000008  0.0000000000000000   F   F   F
  0.7711660000000000  1.2678499999999999  0.0000000000000000   F   F   F
  6.5977509999999988  1.2678499999999999  0.0000000000000000   F   F   F
  5.8499503812466882  0.9533941712756204  5.1576838557674343   T   T   T
 11.5892429110039163  0.8897422051753192  4.7720251961573847   T   T   T
  3.3749123834726649  5.9455126175320121  4.3441479433247832   T   T   T
  7.4354649999999989  3.1771470000000002  3.3038509999999990   F   F   F
  7.4386859999999997  9.9032490000000006  0.0000000000000000   F   F   F
  0.7074478120054302  4.0194616968627273 15.2675849584485075   T   T   T
  6.3774573132005044  3.4688671809305931 16.1669121756569112   T   T   T
  8.8015998497768209  2.8955015561403119 11.7667131694597646   T   T   T
  1.4005093910455215 -0.1460488704029076 16.5994263676226339   T   T   T
  4.5901103037130957  5.9004931439972799 11.0194428982840336   T   T   T
  9.1151498637006743  9.2016581991150659 15.2666524519199882   T   T   T
  2.8223550031118134 11.7007960425953339 11.7614135054838123   T   T   T
  6.5977509999999988  3.6608019999999999  2.9597560000000001   F   F   F
  6.5977509999999988  0.2968220000000000  0.3425450000000000   F   F   F
  3.7297593512254972  2.1712789134606765  7.6077758598667549   T   T   T
  9.5977148927795835  1.8226297663343780  7.4929326457748182   T   T   T
  0.8282764911713091  7.0350800311221660  7.7805581754722883   T   T   T
  0.7711660000000000  3.6608019999999999  2.9597560000000001   F   F   F
  6.5547963136845642  7.0361631208384576  7.4710172637996113   T   T   T
  0.7718305139377902  0.3900633667380802  5.0885355829870775   T   T   T
  0.7711660000000000  0.2968220000000000  0.3425450000000000   F   F   F
  3.6844579999999993  8.7067730000000001  2.9597560000000001   F   F   F
  9.5110430000000008  5.3427920000000011  0.3425450000000000   F   F   F
  3.6844579999999993  5.3427920000000011  0.3425450000000000   F   F   F
  6.6941732716568634  0.3562001893865262  5.0389381692200894   T   T   T
  9.5110430000000008  8.7067730000000001  2.9597560000000001   F   F   F
  9.5875537336587460  5.2629276462121144  5.0432454745144764   T   T   T
  3.6965171218221125  5.5428403677040121  5.2206545751081732   T   T   T
  9.5110430000000008  1.9788120000000000  1.8016859999999999   F   F   F
  6.7988088025310711  3.7363519265101588  6.4551627917518264   T   T   T
  0.6995563204433398  3.6839520488100552  6.5106280968877277   T   T   T
  3.5867850696349830  8.9232911991629393  6.4677755857102195   T   T   T
  6.5977509999999988  7.0247830000000011  1.8016859999999999   F   F   F
  0.7711660000000000  7.0247830000000011  1.8016859999999999   F   F   F
  3.6844579999999993  1.9788120000000000  1.8016859999999999   F   F   F
  9.5835316375466242  8.6427940649972523  6.4059221364917551   T   T   T
