H  O  F  Si P 
 1.0000000000000000
     9.8224603672816997    0.0000000000000000    0.0000000000000000
    -4.9112301836409040    8.5195690981523047    0.0000000000000000
     0.0000000000000583    0.0360251379324295   26.9999796582416955
 H   O   F   Si  P  
  16  48   3  20   1
Selective dynamics
Cartesian
  0.3421619000000000  1.7533649000000000  0.6892279900000000   F   F   F
 -0.5901082600000001  8.2244725600000006 10.5151559900000002   T   T   T
 -1.2398814600000001  6.0661924100000002 10.4528291499999995   T   T   T
  5.2533920900000002  6.7684119300000001  0.0979647200000000   F   F   F
  1.8902163700000001  4.0490190100000003 10.4734147199999992   T   T   T
  0.3421619000000000  6.7684119300000001  0.0979647200000000   F   F   F
  2.7977769900000000  6.0131494500000002  0.6892279900000000   F   F   F
  4.3548589599999996  8.2102958299999997 10.5052365499999993   T   T   T
  6.7627259100000003  4.0062939499999999 10.5236759600000003   T   T   T
  3.6937792400000000  6.0325580700000003 10.4265303399999993   T   T   T
  7.7090071800000004  2.5086273800000001  0.0979647200000000   F   F   F
  2.7977769900000000  2.5086273800000001  0.0979647200000000   F   F   F
 -2.1134531900000000  6.0131494500000002  0.6892279900000000   F   F   F
  1.2700953699999999  1.7304209300000000 10.4688298500000005   T   T   T
  5.2533920900000002  1.7533649000000000  0.6892279900000000   F   F   F
  6.2191401300000004  1.8038078600000000 10.4325164299999997   T   T   T
  1.1802462600000001  0.7676304700000000 10.2987379800000003   T   T   T
 -1.0492798100000000  2.8890604700000000  9.0445348699999997   T   T   T
 -3.5713294000000002  7.3638012499999999  3.4881581399999999   F   F   F
  3.4952178300000001  7.7316761999999999 10.5255899700000004   T   T   T
  6.1979923299999999  0.8107701700000000 10.3991167699999991   T   T   T
  1.3399007900000000  7.3638012499999999  3.4881581399999999   F   F   F
 -3.5191738500000000  7.1085539999999998  9.0349413700000003   T   T   T
  1.3740657900000000  7.1681783499999998  9.0334306200000007   T   T   T
  3.7955158800000000  3.1040166999999999  3.4881581399999999   F   F   F
  0.3421619000000000  6.7692232600000004  1.0979643900000000   F   F   F
 -1.7441271899999999  7.9488036099999997  5.3249659800000000   T   T   T
  0.2198816800000000  6.8277643899999996  6.6200932600000000   T   T   T
  3.1802080199999998  7.9514787199999999  5.3202935800000004   T   T   T
  2.6922980000000001  2.5477492399999999  6.6074475499999998   T   T   T
  2.7977769900000000  2.5094387100000000  1.0979643900000000   F   F   F
  2.6847576599999998  5.9649746300000004  7.0605289100000004   T   T   T
  0.3421619000000000  1.7541762299999999  1.6892276600000000   F   F   F
  5.2533920900000002  1.7541762299999999  1.6892276600000000   F   F   F
  0.7230974999999999  3.6922364600000002  5.3225163100000001   T   T   T
  5.9101020399999999  3.5165923600000002 10.5542694299999997   T   T   T
 -2.2272173600000000  5.9342790399999998  7.0513822499999996   T   T   T
  1.0175053300000001  3.5976222500000001 10.5848712000000003   T   T   T
  5.1512287900000002  1.6858125399999999  7.0618089800000003   T   T   T
  3.7931144899999998  5.4449948099999999  4.7269191499999996   T   T   T
 -1.1157143100000000  3.1040166999999999  3.4881581399999999   F   F   F
  1.3293672000000001  1.1867806999999999  4.7163787700000004   T   T   T
  7.9758371900000000  0.5466814000000000  8.2835631400000000   T   T   T
  3.0656934400000000  0.5111504000000000  8.2694840900000006   T   T   T
  0.7737937000000000  4.8516745500000003  2.9198781800000000   F   F   F
  0.6138378500000000  4.8097893999999997  8.2910796799999993   T   T   T
  5.6314783899999998  3.6883888100000002  5.3230065800000004   T   T   T
  0.2364258400000000  1.6982195000000000  7.0591677400000004   T   T   T
  5.6850238800000001  4.8516745500000003  2.9198781800000000   F   F   F
 -1.4570972400000000  7.7645326800000003 10.5591611899999993   T   T   T
  5.4974860100000003  4.7756206299999997  8.2617348600000007   T   T   T
 -2.1134531900000000  6.0139607699999997  1.6892276600000000   F   F   F
  3.2294087899999999  0.5918900000000000  2.9198781800000000   F   F   F
  8.1406389699999995  0.5918900000000000  2.9198781800000000   F   F   F
  6.2545946800000003  1.1885813800000000  4.7272148300000003   T   T   T
 -1.2597282200000000  5.0754720300000002 10.3465632599999999   T   T   T
  7.7090071800000004  2.5094387100000000  1.0979643900000000   F   F   F
  7.5986041000000002  2.5749825999999998  6.6281121299999999   T   T   T
  2.7977769900000000  6.0139607699999997  1.6892276600000000   F   F   F
 -1.1166026000000000  5.4488056399999998  4.7187272199999999   T   T   T
  5.2533920900000002  6.7692232600000004  1.0979643900000000   F   F   F
  5.1427732500000003  6.8219552900000000  6.6183151499999999   T   T   T
  3.6487560900000000  5.0427791300000004 10.3256662600000002   T   T   T
  3.8278847699999998  2.8614382900000002  9.0298980300000000   T   T   T
  4.0148870499999996  3.5050203600000001 13.7623991500000002   T   T   T
  3.4080876700000000  2.1935851999999998 11.9036286199999992   T   T   T
  3.1928013100000001  1.3228342099999999 14.0835902700000002   T   T   T
  4.7342055099999998  4.1130544100000002  9.5420264899999996   T   T   T
 -0.1794993800000000  4.2773741000000003  4.0897826899999998   T   T   T
 -1.2199146500000000  6.5354098699999996  5.9133924599999999   T   T   T
  7.2304553000000000 -0.1324774900000000  9.5631727699999995   T   T   T
  4.7311192300000000  4.2771419899999996  4.0908701499999998   T   T   T
  1.2293019300000001  6.2048320099999996  7.7250679699999996   T   T   T
  1.3118824099999999  6.2518063200000000  2.2994260700000000   F   F   F
  3.6878488400000000  1.9063789200000001  7.7164014300000003   T   T   T
  6.1590021699999999  2.2798303500000001  5.9192075600000003   T   T   T
  2.2727873500000002  0.0188374200000000  4.0888570399999997   T   T   T
  3.7000167799999999  6.5403427699999996  5.9152464900000004   T   T   T
 -0.1767350000000000  4.1618612500000003  9.5541098800000004   T   T   T
  1.2439835500000000  2.2771149700000000  5.9099974299999998   T   T   T
  7.1875438699999998  0.0177366600000000  4.0902611499999999   T   T   T
 -1.1437326800000001  1.9920217700000000  2.2994260700000000   F   F   F
 -1.2171798700000001  1.9339380600000000  7.7287982099999999   T   T   T
 -3.5993477800000000  6.2518063200000000  2.2994260700000000   F   F   F
 -3.6843193500000000  6.1646873099999997  7.7177430400000002   T   T   T
  3.7674975000000002  1.9920217700000000  2.2994260700000000   F   F   F
  2.2918976000000000 -0.1534782300000000  9.5406046000000000   T   T   T
  4.3032829100000001  2.0476400199999998 13.2131625499999998   T   T   T
