H  O  F  Si P 
 1.0000000000000000
     9.8224603672816997    0.0000000000000000    0.0000000000000000
    -4.9112301836409040    8.5195690981523047    0.0000000000000000
     0.0000000000000583    0.0360251379324295   26.9999796582416955
 H   O   F   Si  P  
  17  48   4  20   1
Selective dynamics
Cartesian
  0.3421619000000000  1.7533649000000000  0.6892279900000000   F   F   F
  5.2533920900000002  1.7533649000000000  0.6892279900000000   F   F   F
  1.4172823904458185  2.0580225126026637 10.9592954055430205   T   T   T
 -2.1134531900000000  6.0131494500000002  0.6892279900000000   F   F   F
  2.7977769900000000  2.5086273800000001  0.0979647200000000   F   F   F
  7.7090071800000004  2.5086273800000001  0.0979647200000000   F   F   F
  3.6995999400000001  6.0303432299999997 10.4401748600000008   T   T   T
  6.7871914000000002  4.0197737800000004 10.5235040899999994   T   T   T
  6.2375359699999997  1.8107783200000001 10.4379228000000008   T   T   T
  2.7977769900000000  6.0131494500000002  0.6892279900000000   F   F   F
  0.3421619000000000  6.7684119300000001  0.0979647200000000   F   F   F
  2.3517113583703577  4.5526659786735379 10.8953806268141591   T   T   T
  5.2533920900000002  6.7684119300000001  0.0979647200000000   F   F   F
  4.3614620500000001  8.2001676200000002 10.5244116099999996   T   T   T
 -1.2130551500000000  6.0640024800000001 10.4717891600000002   T   T   T
  0.4930840300000000  3.0839431799999999 11.7582032800000000   T   T   T
 -0.5767546300000000  8.2359615999999995 10.5387641300000006   T   T   T
  1.3396684200000000  1.1793123999999999  4.7274611499999999   T   T   T
  7.9965030900000000  0.5474609499999999  8.3028999999999993   T   T   T
  3.0796825700000001  0.5154528600000000  8.2821891900000004   T   T   T
  0.7737937000000000  4.8516745500000003  2.9198781800000000   F   F   F
  0.6289911000000000  4.8125335500000004  8.2924395400000002   T   T   T
  5.6495639100000004  3.6809577500000001  5.3195899799999999   T   T   T
  0.2469955700000000  1.6964455000000001  7.0675808900000003   T   T   T
  5.6850238800000001  4.8516745500000003  2.9198781800000000   F   F   F
 -1.4380447300000001  7.7648828900000000 10.5723118100000004   T   T   T
  5.5141717200000002  4.7879269400000002  8.2695329599999994   T   T   T
 -2.1134531900000000  6.0139607699999997  1.6892276600000000   F   F   F
  3.2294087899999999  0.5918900000000000  2.9198781800000000   F   F   F
  8.1406389699999995  0.5918900000000000  2.9198781800000000   F   F   F
  6.2706350400000002  1.1820617899999999  4.7402100599999999   T   T   T
 -1.2345344599999999  5.0743666400000000 10.3589341299999997   T   T   T
  7.7090071800000004  2.5094387100000000  1.0979643900000000   F   F   F
  7.6067033700000000  2.5767013400000001  6.6523017500000003   T   T   T
  2.7977769900000000  6.0139607699999997  1.6892276600000000   F   F   F
 -1.1101961700000000  5.4414830900000002  4.7325722299999997   T   T   T
  5.2533920900000002  6.7692232600000004  1.0979643900000000   F   F   F
  5.1618751899999999  6.8280877899999997  6.6211591800000003   T   T   T
  3.6575146900000002  5.0414456799999998 10.3291131000000007   T   T   T
 -1.1157143100000000  3.1040166999999999  3.4881581399999999   F   F   F
  3.8488360500000001  2.8676020800000002  9.0321596000000000   T   T   T
  5.1592803800000002  1.6840112500000000  7.0639357399999998   T   T   T
  0.7309229800000000  3.6842529800000001  5.3207747200000002   T   T   T
  6.2136444900000001  0.8178435600000000 10.4101161599999994   T   T   T
  3.8034220900000002  5.4320475400000001  4.7430555099999996   T   T   T
 -3.5106070100000002  7.1237584199999997  9.0483185800000001   T   T   T
  1.3399007900000000  7.3638012499999999  3.4881581399999999   F   F   F
  3.7955158800000000  3.1040166999999999  3.4881581399999999   F   F   F
  3.5000307199999998  7.7267812700000000 10.5454265700000001   T   T   T
 -3.5713294000000002  7.3638012499999999  3.4881581399999999   F   F   F
 -1.0179020700000001  2.8879415700000002  9.0626375699999997   T   T   T
  1.2147565199999999  0.7838672400000000 10.3287278699999998   T   T   T
  1.3851057300000000  7.1723338200000004  9.0427257399999998   T   T   T
  0.3421619000000000  6.7692232600000004  1.0979643900000000   F   F   F
  1.3387994016511136  4.1044312427008514 10.7060085051946743   T   T   T
  0.2423243200000000  6.8291266799999999  6.6201528500000002   T   T   T
  3.1953786200000001  7.9414401999999997  5.3156285299999997   T   T   T
  2.6994742399999998  2.5500439600000000  6.6156591400000000   T   T   T
  2.7977769900000000  2.5094387100000000  1.0979643900000000   F   F   F
  2.7072508200000001  5.9724295100000004  7.0786277899999996   T   T   T
  0.3421619000000000  1.7541762299999999  1.6892276600000000   F   F   F
  5.2533920900000002  1.7541762299999999  1.6892276600000000   F   F   F
 -1.7290243599999999  7.9453298999999999  5.3215805200000004   T   T   T
  5.9345473000000002  3.5293964600000001 10.5561116300000002   T   T   T
 -2.2066376600000002  5.9504433399999996  7.0692085400000000   T   T   T
  0.6145795199999999  2.9978960699999999 12.7161587399999991   T   T   T
  3.2564719800000002  1.4073680799999999 14.1050070999999999   T   T   T
  3.6429011699965943  2.6270229674185979 12.3157943368508764   T   T   T
  4.0949027500000001  3.5811091600000000 13.7760659400000005   T   T   T
  3.7674975000000002  1.9920217700000000  2.2994260700000000   F   F   F
 -3.6677126800000002  6.1786562199999997  7.7289354899999996   T   T   T
 -3.5993477800000000  6.2518063200000000  2.2994260700000000   F   F   F
 -1.2008655800000001  1.9361556099999999  7.7467188800000004   T   T   T
 -1.1437326800000001  1.9920217700000000  2.2994260700000000   F   F   F
  7.1955052400000001  0.0111426100000000  4.0930638899999998   T   T   T
  1.2526692699999999  2.2732571799999999  5.9165158499999997   T   T   T
  0.2647995491065946  4.2023920051378170  9.9041115892656659   T   T   T
  2.3106511300000001 -0.1458076400000000  9.5586907399999994   T   T   T
  3.7175780399999998  6.5366705400000003  5.9229925500000000   T   T   T
  2.2790026399999999  0.0137960700000000  4.0910272900000004   T   T   T
  6.1747148599999999  2.2768279400000000  5.9282663600000003   T   T   T
  3.6987941000000002  1.9094063800000001  7.7221074900000000   T   T   T
  1.3118824099999999  6.2518063200000000  2.2994260700000000   F   F   F
  1.2464410900000000  6.2091783200000004  7.7328012499999996   T   T   T
  4.7396294699999997  4.2696995199999996  4.0942550600000001   T   T   T
  7.2426684400000001 -0.1312402300000000  9.5769440899999996   T   T   T
 -1.2021660999999999  6.5373545200000001  5.9204826300000004   T   T   T
 -0.1751428300000000  4.2735698199999996  4.0926904899999998   T   T   T
  4.7524012999999998  4.1194585100000003  9.5473397900000005   T   T   T
  4.3774471400000001  2.1186100200000002 13.2372023300000006   T   T   T
