H  O  F  Si P 
 1.0000000000000000
     9.8224603672816997    0.0000000000000000    0.0000000000000000
    -4.9112301836409040    8.5195690981523047    0.0000000000000000
     0.0000000000000583    0.0360251379324295   26.9999796582416955
 H   O   F   Si  P  
  17  48   4  20   1
Selective dynamics
Cartesian
  0.3421619000000000  1.7533649000000000  0.6892279900000000   F   F   F
 -0.5901082574781191  8.2244725561318592 10.5151559887122179   T   T   T
  0.9158811401530643  3.4711441287184801 12.2401023838581402   T   T   T
 -1.2398814563237843  6.0661924106111327 10.4528291520202696   T   T   T
  5.2533920900000002  6.7684119300000001  0.0979647200000000   F   F   F
  1.8902163667529699  4.0490190133284489 10.4734147241423496   T   T   T
  0.3421619000000000  6.7684119300000001  0.0979647200000000   F   F   F
  2.7977769900000000  6.0131494500000002  0.6892279900000000   F   F   F
  4.3548589642571391  8.2102958347629649 10.5052365536819288   T   T   T
  6.7627259084308307  4.0062939473442380 10.5236759562840234   T   T   T
  3.6937792391842139  6.0325580727181496 10.4265303408152068   T   T   T
  7.7090071800000004  2.5086273800000001  0.0979647200000000   F   F   F
  2.7977769900000000  2.5086273800000001  0.0979647200000000   F   F   F
 -2.1134531900000000  6.0131494500000002  0.6892279900000000   F   F   F
  1.2700953736105935  1.7304209342799537 10.4688298503909696   T   T   T
  5.2533920900000002  1.7533649000000000  0.6892279900000000   F   F   F
  6.2191401272205296  1.8038078563142952 10.4325164317448262   T   T   T
  1.1802462608670887  0.7676304696710243 10.2987379829654575   T   T   T
 -1.0492798110610564  2.8890604694347219  9.0445348654685009   T   T   T
 -3.5713294000000002  7.3638012499999999  3.4881581399999999   F   F   F
  3.4952178253383672  7.7316761984795210 10.5255899748618571   T   T   T
  6.1979923329526532  0.8107701691012987 10.3991167686975974   T   T   T
  1.3399007900000000  7.3638012499999999  3.4881581399999999   F   F   F
 -3.5191738491146722  7.1085539999530090  9.0349413715648090   T   T   T
  1.3740657944435950  7.1681783531733192  9.0334306169129643   T   T   T
  3.7955158800000000  3.1040166999999999  3.4881581399999999   F   F   F
  0.3421619000000000  6.7692232600000004  1.0979643900000000   F   F   F
 -1.7441271903348992  7.9488036076548738  5.3249659804290976   T   T   T
  0.2198816812465176  6.8277643902628196  6.6200932565832735   T   T   T
  3.1802080219084545  7.9514787204747188  5.3202935791263890   T   T   T
  2.6922979988576987  2.5477492365831429  6.6074475538966126   T   T   T
  2.7977769900000000  2.5094387100000000  1.0979643900000000   F   F   F
  2.6847576603568788  5.9649746317853474  7.0605289087742920   T   T   T
  0.3421619000000000  1.7541762299999999  1.6892276600000000   F   F   F
  5.2533920900000002  1.7541762299999999  1.6892276600000000   F   F   F
  0.7230975047230952  3.6922364629884545  5.3225163074586490   T   T   T
  5.9101020435032208  3.5165923588473378 10.5542694291871886   T   T   T
 -2.2272173595423883  5.9342790378462995  7.0513822461871021   T   T   T
  1.0175053290424441  3.5976222518832461 10.5848712011528843   T   T   T
  5.1512287883057040  1.6858125374142949  7.0618089768385506   T   T   T
  3.7931144931278582  5.4449948108144808  4.7269191501109562   T   T   T
 -1.1157143100000000  3.1040166999999999  3.4881581399999999   F   F   F
  1.3293671995219849  1.1867807025692778  4.7163787650638165   T   T   T
  7.9758371864017290  0.5466813956178361  8.2835631386640038   T   T   T
  3.0656934410575962  0.5111504021876356  8.2694840937121921   T   T   T
  0.7737937000000000  4.8516745500000003  2.9198781800000000   F   F   F
  0.6138378549580465  4.8097893978922750  8.2910796844721624   T   T   T
  5.6314783891824431  3.6883888064130406  5.3230065827829467   T   T   T
  0.2364258446832240  1.6982194986467112  7.0591677351012709   T   T   T
  5.6850238800000001  4.8516745500000003  2.9198781800000000   F   F   F
 -1.4570972375294746  7.7645326805379478 10.5591611921783723   T   T   T
  5.4974860083917889  4.7756206349391430  8.2617348572872107   T   T   T
 -2.1134531900000000  6.0139607699999997  1.6892276600000000   F   F   F
  3.2294087899999999  0.5918900000000000  2.9198781800000000   F   F   F
  8.1406389699999995  0.5918900000000000  2.9198781800000000   F   F   F
  6.2545946803919685  1.1885813837519070  4.7272148256553130   T   T   T
 -1.2597282202328723  5.0754720341253980 10.3465632587512371   T   T   T
  7.7090071800000004  2.5094387100000000  1.0979643900000000   F   F   F
  7.5986040954000806  2.5749825980852128  6.6281121251669806   T   T   T
  2.7977769900000000  6.0139607699999997  1.6892276600000000   F   F   F
 -1.1166025970285394  5.4488056422612408  4.7187272214248157   T   T   T
  5.2533920900000002  6.7692232600000004  1.0979643900000000   F   F   F
  5.1427732466675309  6.8219552866351467  6.6183151492963654   T   T   T
  3.6487560947988498  5.0427791339860857 10.3256662550498355   T   T   T
  3.8278847725673959  2.8614382929478461  9.0298980276508090   T   T   T
  4.0148870503038285  3.5050203559852866 13.7623991500835068   T   T   T
  3.4080876718958999  2.1935852029653011 11.9036286166504617   T   T   T
  0.9947627007552896  3.3152477555840769 13.1936666715855413   T   T   T
  3.1928013138518652  1.3228342087693179 14.0835902732863101   T   T   T
  4.7342055123684421  4.1130544061513570  9.5420264939709689   T   T   T
 -0.1794993823918930  4.2773740963768994  4.0897826942485693   T   T   T
 -1.2199146465714577  6.5354098736808934  5.9133924635159865   T   T   T
  7.2304553024392382 -0.1324774878777079  9.5631727702370988   T   T   T
  4.7311192258867711  4.2771419886901292  4.0908701451195641   T   T   T
  1.2293019289664477  6.2048320101834253  7.7250679691218540   T   T   T
  1.3118824099999999  6.2518063200000000  2.2994260700000000   F   F   F
  3.6878488366919049  1.9063789245709255  7.7164014290504399   T   T   T
  6.1590021700310746  2.2798303476574380  5.9192075642891862   T   T   T
  2.2727873536253660  0.0188374217240459  4.0888570434011360   T   T   T
  3.7000167802534421  6.5403427695501213  5.9152464926257800   T   T   T
 -0.1767350041474519  4.1618612480656489  9.5541098781399452   T   T   T
  1.2439835504801751  2.2771149666436048  5.9099974333324292   T   T   T
  7.1875438698973602  0.0177366620025184  4.0902611529631718   T   T   T
 -1.1437326800000001  1.9920217700000000  2.2994260700000000   F   F   F
 -1.2171798693111437  1.9339380606372096  7.7287982102469819   T   T   T
 -3.5993477800000000  6.2518063200000000  2.2994260700000000   F   F   F
 -3.6843193527238700  6.1646873079075748  7.7177430405271989   T   T   T
  3.7674975000000002  1.9920217700000000  2.2994260700000000   F   F   F
  2.2918976020334108 -0.1534782294514355  9.5406046042245496   T   T   T
  4.3032829114258231  2.0476400175274576 13.2131625459615361   T   T   T
