H  N  F  Si
 1.0000000000000000
    11.6535095964131994    0.0000000000000000    0.0000000000000000
     0.0000000000000000   10.0922353537395004    0.0000000000000000
     0.0000000000000000    0.0000000000000000   24.2900245128767978
 H   N   F   Si 
  64  16  48   8
Selective dynamics
Cartesian
  0.8401025522626027  0.4853004884351009  5.2204217778069388   T   T   T
  7.9012122324956344  7.9258454606021980  3.8043095294545042   F   F   F
  4.9878348333923128  2.8797277837324491  3.8043095294545042   F   F   F
 10.8145896315989134  2.8797277837324491  3.8043095294545042   F   F   F
  3.7681346423468458  2.1694097947334114  8.3908771288990867   T   T   T
  9.5948892086146547  2.1694096361972131  8.3908769149514466   T   T   T
  0.8547571335389881  7.2155275188548362  8.3908771567732572   T   T   T
  6.6815116545717617  7.2155273650439105  8.3908769090042803   T   T   T
  2.9133773991032781  9.3788974631443622  3.8043095294545042   F   F   F
  7.8906785540832090  2.1785950275820860  8.3908773117415620   T   T   T
  4.9773009763470233  7.2247129200797220  8.3908769577814368   T   T   T
 10.8040558140617247  7.2247131447479456  8.3908772712028465   T   T   T
  2.9133775488860207  1.6820391009565063  7.0551122863813873   T   T   T
  8.7401319898557901  1.6820390768044069  7.0551122591087667   T   T   T
  0.0000000930328161  6.7281567369179935  7.0551121317508709   T   T   T
  5.8267548157790801  6.7281567284022348  7.0551122941553484   T   T   T
  2.0639238193017158  2.1785951257759399  8.3908769439431872   T   T   T
  6.6668577462490646  0.4853002092767735  5.2204218765249646   T   T   T
  3.7534803865600193  5.5314181249902310  5.2204215777471248   T   T   T
  9.5802351369927194  5.5314183255410034  5.2204214006933558   T   T   T
  2.9080743520919481  0.6981126878461759  8.3908771986514488   T   T   T
  8.7348291166450025  0.6981124148521518  8.3908770544106090   T   T   T
 -0.0053034391609925  5.7442304438254190  8.3908774630076373   T   T   T
  5.8214516594356711  5.7442304741883818  8.3908772593808436   T   T   T
  0.8412563922912988  9.6065357491926271  0.5000000000000000   F   F   F
  6.6680111904978983  9.6065357491926271  0.5000000000000000   F   F   F
  3.7546337913945766  4.5604180723228787  0.5000000000000000   F   F   F
  9.5813885896011755  4.5604180723228787  0.5000000000000000   F   F   F
  2.9133773991032781  8.4101961281162527  2.4321633756321481   F   F   F
  8.7401321973098778  8.4101961281162527  2.4321633756321481   F   F   F
 -0.0000000000000436  3.3640784512465056  2.4321633756321481   F   F   F
  5.8267547982065562  3.3640784512465056  2.4321633756321481   F   F   F
  7.8997979772430487  5.5310182370527761  5.2204216701753570   T   T   T
  8.7401321973098778  9.3788974631443622  3.8043095294545042   F   F   F
 -0.0000000000000436  4.3327797862746138  3.8043095294545042   F   F   F
  5.8267547982065562  4.3327797862746138  3.8043095294545042   F   F   F
  4.9854984059152585  9.6065357491926289  0.5000000000000000   F   F   F
 10.8122532041218591  9.6065357491926289  0.5000000000000000   F   F   F
  2.0721210068119369  4.5604180723228804  0.5000000000000000   F   F   F
  7.8988758050185366  4.5604180723228804  0.5000000000000000   F   F   F
  0.0000000000000009  0.0000000000000000  1.8667589503465760   F   F   F
  5.8267547982066006  0.0000000000000000  1.8667589503465760   F   F   F
  2.9133773991032790  5.0461176768697538  1.8667589503465760   F   F   F
  8.7401321973098796  5.0461176768697538  1.8667589503465760   F   F   F
  0.0000003221256023 -0.0000003800838996  6.5934034725339705   T   T   T
  5.8267547804001749 -0.0000001050603132  6.5934029736983799   T   T   T
  2.9133772001156930  5.0461176527409126  6.5934028365066784   T   T   T
  8.7401323128715092  5.0461176926838149  6.5934028950619670   T   T   T
  8.7403631116922238  4.0759170232606845  5.2204215316838525   T   T   T
  2.0744574342890347  7.9258454606021980  3.8043095294545042   F   F   F
  2.0730432918810200  5.5310180249829273  5.2204214633445361   T   T   T
 10.8131750086489919  0.4849003506575990  5.2204219531551548   T   T   T
  4.9864207755661365  0.4849004333066692  5.2204218497623822   T   T   T
  5.8267547982065562  0.9713992090937540  0.5000000000000000   F   F   F
 -0.0000000000000436  0.9713992090937540  0.5000000000000000   F   F   F
  8.7401321973098778  6.0175168859635022  0.5000000000000000   F   F   F
  2.9133773991032781  6.0175168859635022  0.5000000000000000   F   F   F
  2.9136083278627289  4.0759168404799064  5.2204215668682101   T   T   T
  0.0002310046446919  9.1220347054048929  5.2204213876674004   T   T   T
  5.8269855540621913  9.1220340247103060  5.2204215071762050   T   T   T
  3.7522973639175210  7.9258454606021980  3.8043095294545042   F   F   F
  9.5790521621241211  7.9258454606021980  3.8043095294545042   F   F   F
  0.8389199648141999  2.8797277837324504  3.8043095294545042   F   F   F
  6.6656747630207995  2.8797277837324504  3.8043095294545042   F   F   F
  0.0000000000000009  0.0000000000000000  0.8416304243563442   F   F   F
  2.9133773991032781  8.4101961281162527  3.4593945362622507   F   F   F
  8.7401321973098796  5.0461176768697538  0.8416304243563442   F   F   F
  2.9133773991032790  5.0461176768697538  0.8416304243563442   F   F   F
  5.8267547982066006  0.0000000000000000  0.8416304243563442   F   F   F
  8.7401321973098778  8.4101961281162527  3.4593945362622507   F   F   F
  8.7401321865511630  5.0461177598812874  5.5634939468588840   T   T   T
  2.9133772650855527  5.0461176373282592  5.5634940177044125   T   T   T
  5.8267547516775942  0.0000006816371323  5.5634943930595915   T   T   T
  0.0000002408130049 -0.0000001309087102  5.5634935661009433   T   T   T
  5.8267552874887967  6.7281569042782330  8.0841742730904684   T   T   T
 -0.0000000124783097  6.7281568049181475  8.0841746713500360   T   T   T
  8.7401320449435875  1.6820392493648326  8.0841743845701686   T   T   T
  2.9133773524313136  1.6820391182421948  8.0841743200798355   T   T   T
  5.8267547982065562  3.3640784512465056  3.4593945362622507   F   F   F
 -0.0000000000000436  3.3640784512465056  3.4593945362622507   F   F   F
  5.8255702709538788  4.7721454047258183  5.9183368044024522   T   T   T
 -0.0011847620363380  4.7721453770437430  5.9183370654486902   T   T   T
  8.7389477764578505  9.8182634365395689  5.9183368571837160   T   T   T
  2.9121933467300347  9.8182631801977962  5.9183369109436832   T   T   T
  7.0480204826230830  4.0694166819067235  7.9060475969625887   T   T   T
  1.2212655384715592  4.0694168180308150  7.9060479639219876   T   T   T
  9.9613974889662078  9.1155345552643183  7.9060478543412271   T   T   T
  4.1346431144273819  9.1155345636469285  7.9060478711527971   T   T   T
  7.0455803710100859  7.4318461750463234  1.3166483637921624   F   F   F
  1.2188255728034860  7.4318461750463234  1.3166483637921624   F   F   F
  9.9589577701134075  2.3857284981765692  1.3166483637921624   F   F   F
  4.1322029719068079  2.3857284981765692  1.3166483637921624   F   F   F
  5.8267547982065562  8.1378756805668004  3.3010724808649616   F   F   F
 -0.0000000000000436  8.1378756805668004  3.3010724808649616   F   F   F
  8.7401321973098778  3.0917580036970467  3.3010724808649616   F   F   F
  2.9133773991032776  3.0917580036970467  3.3010724808649616   F   F   F
  1.6945480064266119  7.7051369804357295  5.9183368861472472   T   T   T
  7.5213024650985467  7.7051372015423638  5.9183368766530906   T   T   T
  4.6079252129354371  2.6590191720560621  5.9183365110849593   T   T   T
 10.4346800207463701  2.6590191747678871  5.9183368281328850   T   T   T
  2.9135858013798654  6.9998802080877534  7.9060480992201256   T   T   T
  8.7403401418350146  6.9998802820172505  7.9060481155540190   T   T   T
  0.0002084300793333  1.9537621165036843  7.9060480299904352   T   T   T
  5.8269625918017294  1.9537623384874740  7.9060479463780338   T   T   T
 10.4346840236096270  7.4318461750463234  1.3166483637921624   F   F   F
  4.6079292254030264  7.4318461750463234  1.3166483637921624   F   F   F
  7.5213066245063480  2.3857284981765683  1.3166483637921624   F   F   F
  1.6945518262997479  2.3857284981765683  1.3166483637921624   F   F   F
  7.0476070722104200  6.0232975134561082  3.3010724808649616   F   F   F
  1.2208522740038208  6.0232975134561082  3.3010724808649616   F   F   F
  9.9609844713137434  0.9771798365863533  3.3010724808649616   F   F   F
  4.1342296731071428  0.9771798365863533  3.3010724808649616   F   F   F
  4.1333914229438902  7.7071884146699583  5.9183367196564269   T   T   T
  9.9601457052567710  7.7071884739198868  5.9183367129068012   T   T   T
  1.2200140657330851  2.6610707975698142  5.9183368959992775   T   T   T
  7.0467686069898940  2.6610705719390242  5.9183369779056889   T   T   T
  1.6919037188730979  9.1151742068264685  7.9060478390914328   T   T   T
  7.5186581946769975  9.1151742400129780  7.9060477916629743   T   T   T
  4.6052809833320998  4.0690563042117471  7.9060478235401952   T   T   T
 10.4320359824414464  4.0690558768511984  7.9060482230707505   T   T   T
  1.6925251250994147  0.9771798365863532  3.3010724808649616   F   F   F
  7.5192799233060139  0.9771798365863532  3.3010724808649616   F   F   F
  4.6059025242026914  6.0232975134561082  3.3010724808649616   F   F   F
 10.4326573224092911  6.0232975134561082  3.3010724808649616   F   F   F
  2.9133773991032781  0.2746606805166148  1.3166483637921624   F   F   F
  8.7401321973098778  0.2746606805166148  1.3166483637921624   F   F   F
 -0.0000000000000436  5.3207783573863692  1.3166483637921624   F   F   F
  5.8267547982065562  5.3207783573863692  1.3166483637921624   F   F   F
  5.8267547158739719  3.3640784203554692  6.9263598442672523   T   T   T
  0.0000000557286571  3.3640784457189725  6.9263601147836305   T   T   T
  8.7401319950512075  8.4101964483055376  6.9263599195645416   T   T   T
  2.9133775452735176  8.4101962179146383  6.9263600098722371   T   T   T
  5.8267547982065562  6.7281569024930041  2.2987940834959804   F   F   F
 -0.0000000000000436  6.7281569024930041  2.2987940834959804   F   F   F
  8.7401321973098778  1.6820392256232506  2.2987940834959804   F   F   F
  2.9133773991032781  1.6820392256232506  2.2987940834959804   F   F   F
