H  N  F  Si
 1.0000000000000000
    11.6535095964131994    0.0000000000000000    0.0000000000000000
     0.0000000000000000   10.0922353537395004    0.0000000000000000
     0.0000000000000000    0.0000000000000000   24.2900245128767978
 H   N   F   Si 
  64  16  48   8
Selective dynamics
Cartesian
  2.9133773991032781  9.3788974631443622  3.8043095294545042   F   F   F
  8.7401321973098778  9.3788974631443622  3.8043095294545042   F   F   F
 -0.0000000000000436  4.3327797862746138  3.8043095294545042   F   F   F
  5.8267547982065562  4.3327797862746138  3.8043095294545042   F   F   F
  4.9854984059152585  9.6065357491926289  0.5000000000000000   F   F   F
 10.8122532041218591  9.6065357491926289  0.5000000000000000   F   F   F
  2.0721210068119369  4.5604180723228804  0.5000000000000000   F   F   F
  7.8988758050185366  4.5604180723228804  0.5000000000000000   F   F   F
  0.0000000000000009  0.0000000000000000  1.8667589503465760   F   F   F
  5.8267547982066006  0.0000000000000000  1.8667589503465760   F   F   F
  2.9133773991032790  5.0461176768697538  1.8667589503465760   F   F   F
  8.7401321973098796  5.0461176768697538  1.8667589503465760   F   F   F
  0.0000000000000009  0.0000000000000000  6.5117712067850011   T   T   T
  5.8267547982066006  0.0000000000000000  6.5117712067850011   T   T   T
  2.9133773991032790  5.0461176768697538  6.5117712067850011   T   T   T
  8.7401321973098796  5.0461176768697538  6.5117712067850011   T   T   T
  0.8412563922912988  9.6065357491926271  0.5000000000000000   F   F   F
  6.6680111904978983  9.6065357491926271  0.5000000000000000   F   F   F
  3.7546337913945766  4.5604180723228787  0.5000000000000000   F   F   F
  9.5813885896011755  4.5604180723228787  0.5000000000000000   F   F   F
  2.9133773991032781  8.4101961281162527  2.4321633756321481   F   F   F
  8.7401321973098778  8.4101961281162527  2.4321633756321481   F   F   F
 -0.0000000000000436  3.3640784512465056  2.4321633756321481   F   F   F
  5.8267547982065562  3.3640784512465056  2.4321633756321481   F   F   F
  2.9133773991032781  4.0747184677760009  5.1450122564384273   T   T   T
  8.7401321973098778  4.0747184677760009  5.1450122564384273   T   T   T
 -0.0000000000000436  9.1208361446457555  5.1450122564384273   T   T   T
  5.8267547982065562  9.1208361446457555  5.1450122564384273   T   T   T
  3.7522973639175210  7.9258454606021980  3.8043095294545042   F   F   F
  9.5790521621241211  7.9258454606021980  3.8043095294545042   F   F   F
  0.8389199648141999  2.8797277837324504  3.8043095294545042   F   F   F
  6.6656747630207995  2.8797277837324504  3.8043095294545042   F   F   F
  2.9133773991032781  6.0175168859635022  0.5000000000000000   F   F   F
  8.7401321973098778  6.0175168859635022  0.5000000000000000   F   F   F
 -0.0000000000000436  0.9713992090937540  0.5000000000000000   F   F   F
  5.8267547982065562  0.9713992090937540  0.5000000000000000   F   F   F
  4.9854984059152585  0.4856996045468767  5.1450122564384273   T   T   T
 10.8122532041218591  0.4856996045468767  5.1450122564384273   T   T   T
  2.0721210068119369  5.5318172814166306  5.1450122564384273   T   T   T
  7.8988758050185366  5.5318172814166306  5.1450122564384273   T   T   T
  2.0744574342890347  7.9258454606021980  3.8043095294545042   F   F   F
  7.9012122324956344  7.9258454606021980  3.8043095294545042   F   F   F
  4.9878348333923128  2.8797277837324491  3.8043095294545042   F   F   F
 10.8145896315989134  2.8797277837324491  3.8043095294545042   F   F   F
  3.7522973639175214  2.1663898931373056  8.4493217858929288   T   T   T
  9.5790521621241211  2.1663898931373056  8.4493217858929288   T   T   T
  0.8389199648141999  7.2125075700070598  8.4493217858929288   T   T   T
  6.6656747630207995  7.2125075700070598  8.4493217858929288   T   T   T
  2.0744574342890356  2.1663898931373051  8.4493217858929288   T   T   T
  7.9012122324956353  2.1663898931373051  8.4493217858929288   T   T   T
  4.9878348333923137  7.2125075700070598  8.4493217858929288   T   T   T
 10.8145896315989134  7.2125075700070598  8.4493217858929288   T   T   T
  2.9133773991032790  1.6820392256232506  7.0771756320705741   T   T   T
  8.7401321973098796  1.6820392256232506  7.0771756320705741   T   T   T
 -0.0000000000000424  6.7281569024930041  7.0771756320705741   T   T   T
  5.8267547982065571  6.7281569024930041  7.0771756320705741   T   T   T
  0.8412563922912988  0.4856996045468748  5.1450122564384273   T   T   T
  6.6680111904978983  0.4856996045468748  5.1450122564384273   T   T   T
  3.7546337913945766  5.5318172814166289  5.1450122564384273   T   T   T
  9.5813885896011755  5.5318172814166289  5.1450122564384273   T   T   T
  2.9133773991032790  0.7133378905951415  8.4493217858929288   T   T   T
  8.7401321973098796  0.7133378905951415  8.4493217858929288   T   T   T
 -0.0000000000000424  5.7594555674648964  8.4493217858929288   T   T   T
  5.8267547982065571  5.7594555674648964  8.4493217858929288   T   T   T
  2.9133773991032781  8.4101961281162527  3.4593945362622507   F   F   F
  8.7401321973098778  8.4101961281162527  3.4593945362622507   F   F   F
 -0.0000000000000436  3.3640784512465056  3.4593945362622507   F   F   F
  5.8267547982065562  3.3640784512465056  3.4593945362622507   F   F   F
  2.9133773991032790  1.6820392256232506  8.1044067927006740   T   T   T
  8.7401321973098796  1.6820392256232506  8.1044067927006740   T   T   T
 -0.0000000000000424  6.7281569024930041  8.1044067927006740   T   T   T
  5.8267547982065571  6.7281569024930041  8.1044067927006740   T   T   T
  0.0000000000000009  0.0000000000000000  5.4866426807947697   T   T   T
  5.8267547982066006  0.0000000000000000  5.4866426807947697   T   T   T
  2.9133773991032790  5.0461176768697538  5.4866426807947697   T   T   T
  8.7401321973098796  5.0461176768697538  5.4866426807947697   T   T   T
  0.0000000000000009  0.0000000000000000  0.8416304243563442   F   F   F
  5.8267547982066006  0.0000000000000000  0.8416304243563442   F   F   F
  2.9133773991032790  5.0461176768697538  0.8416304243563442   F   F   F
  8.7401321973098796  5.0461176768697538  0.8416304243563442   F   F   F
  4.1322029719068079  7.7065068555629352  5.9616606202305853   T   T   T
  9.9589577701134075  7.7065068555629352  5.9616606202305853   T   T   T
  1.2188255728034860  2.6603891786931881  5.9616606202305853   T   T   T
  7.0455803710100859  2.6603891786931881  5.9616606202305853   T   T   T
  1.6925251250994149  9.1150555171531504  7.9460847373033872   T   T   T
  7.5192799233060148  9.1150555171531504  7.9460847373033872   T   T   T
  4.6059025242026932  4.0689378402834011  7.9460847373033872   T   T   T
 10.4326573224092929  4.0689378402834011  7.9460847373033872   T   T   T
  4.1342296731071428  9.1150555171531504  7.9460847373033872   T   T   T
  9.9609844713137434  9.1150555171531504  7.9460847373033872   T   T   T
  1.2208522740038208  4.0689378402834038  7.9460847373033872   T   T   T
  7.0476070722104200  4.0689378402834038  7.9460847373033872   T   T   T
  2.9133773991032781  9.8175746732228895  5.9616606202305853   T   T   T
  8.7401321973098778  9.8175746732228895  5.9616606202305853   T   T   T
 -0.0000000000000436  4.7714569963531410  5.9616606202305853   T   T   T
  5.8267547982065562  4.7714569963531410  5.9616606202305853   T   T   T
  2.9133773991032776  3.0917580036970467  3.3010724808649616   F   F   F
  8.7401321973098778  3.0917580036970467  3.3010724808649616   F   F   F
 -0.0000000000000436  8.1378756805668004  3.3010724808649616   F   F   F
  5.8267547982065562  8.1378756805668004  3.3010724808649616   F   F   F
  4.1322029719068079  2.3857284981765692  1.3166483637921624   F   F   F
  9.9589577701134075  2.3857284981765692  1.3166483637921624   F   F   F
  1.2188255728034860  7.4318461750463234  1.3166483637921624   F   F   F
  7.0455803710100859  7.4318461750463234  1.3166483637921624   F   F   F
  1.6945518262997481  7.7065068555629344  5.9616606202305853   T   T   T
  7.5213066245063480  7.7065068555629344  5.9616606202305853   T   T   T
  4.6079292254030264  2.6603891786931859  5.9616606202305853   T   T   T
 10.4346840236096270  2.6603891786931859  5.9616606202305853   T   T   T
  2.9133773991032781  7.0004773500424564  7.9460847373033872   T   T   T
  8.7401321973098778  7.0004773500424564  7.9460847373033872   T   T   T
 -0.0000000000000436  1.9543596731727102  7.9460847373033872   T   T   T
  5.8267547982065562  1.9543596731727102  7.9460847373033872   T   T   T
  4.1342296731071428  0.9771798365863533  3.3010724808649616   F   F   F
  9.9609844713137434  0.9771798365863533  3.3010724808649616   F   F   F
  1.2208522740038208  6.0232975134561082  3.3010724808649616   F   F   F
  7.0476070722104200  6.0232975134561082  3.3010724808649616   F   F   F
  1.6945518262997479  2.3857284981765683  1.3166483637921624   F   F   F
  7.5213066245063480  2.3857284981765683  1.3166483637921624   F   F   F
  4.6079292254030264  7.4318461750463234  1.3166483637921624   F   F   F
 10.4346840236096270  7.4318461750463234  1.3166483637921624   F   F   F
  1.6925251250994147  0.9771798365863532  3.3010724808649616   F   F   F
  7.5192799233060139  0.9771798365863532  3.3010724808649616   F   F   F
  4.6059025242026914  6.0232975134561082  3.3010724808649616   F   F   F
 10.4326573224092911  6.0232975134561082  3.3010724808649616   F   F   F
  2.9133773991032781  0.2746606805166148  1.3166483637921624   F   F   F
  8.7401321973098778  0.2746606805166148  1.3166483637921624   F   F   F
 -0.0000000000000436  5.3207783573863692  1.3166483637921624   F   F   F
  5.8267547982065562  5.3207783573863692  1.3166483637921624   F   F   F
  2.9133773991032781  1.6820392256232506  2.2987940834959804   F   F   F
  8.7401321973098778  1.6820392256232506  2.2987940834959804   F   F   F
 -0.0000000000000436  6.7281569024930041  2.2987940834959804   F   F   F
  5.8267547982065562  6.7281569024930041  2.2987940834959804   F   F   F
  2.9133773991032781  8.4101961281162527  6.9438063399344063   T   T   T
  8.7401321973098778  8.4101961281162527  6.9438063399344063   T   T   T
 -0.0000000000000436  3.3640784512465056  6.9438063399344063   T   T   T
  5.8267547982065562  3.3640784512465056  6.9438063399344063   T   T   T
