H  N  F  Si
 1.0000000000000000
    11.6535095964131994    0.0000000000000000    0.0000000000000000
     0.0000000000000000   10.0922353537395004    0.0000000000000000
     0.0000000000000000    0.0000000000000000   24.2900245128767978
 H   N   F   Si 
  64  16  48   8
Selective dynamics
Cartesian
  0.8401032986939794  0.4853003454352958  5.2204217918258324   T   T   T
  7.9012122324956344  7.9258454606021980  3.8043095294545042   F   F   F
  4.9878348333923128  2.8797277837324491  3.8043095294545042   F   F   F
 10.8145896315989134  2.8797277837324491  3.8043095294545042   F   F   F
  3.7681344167138038  2.1694095510442337  8.3908774670624489   T   T   T
  9.5948891754143517  2.1694099525549819  8.3908777101424814   T   T   T
  0.8547574079246097  7.2155270794859154  8.3908773209512439   T   T   T
  6.6815116930191838  7.2155271836173434  8.3908773249851247   T   T   T
  2.9133773991032781  9.3788974631443622  3.8043095294545042   F   F   F
  7.8906785707659468  2.1785944771276204  8.3908770404552531   T   T   T
  4.9773011524193222  7.2247124459779393  8.3908771569746161   T   T   T
 10.8040555034500230  7.2247130422972807  8.3908776146779385   T   T   T
  2.9133775091157768  1.6820390573890671  7.0551126214868596   T   T   T
  8.7401319798110269  1.6820392049425001  7.0551123362881736   T   T   T
  0.0000002724969210  6.7281567820167485  7.0551129109101653   T   T   T
  5.8267547124193086  6.7281571693940627  7.0551122254239287   T   T   T
  2.0639234080723030  2.1785949584983304  8.3908774623719111   T   T   T
  6.6668580054190771  0.4853003799342044  5.2204213569338407   T   T   T
  3.7534804078280781  5.5314183055441672  5.2204215085696779   T   T   T
  9.5802352731273501  5.5314182678434447  5.2204212719596272   T   T   T
  2.9080743954577004  0.6981125000355095  8.3908774143644429   T   T   T
  8.7348286838081481  0.6981125166413588  8.3908770461061231   T   T   T
 -0.0053030126603231  5.7442301583029991  8.3908775009518344   T   T   T
  5.8214516730500767  5.7442303427724504  8.3908772184788898   T   T   T
  0.8412563922912988  9.6065357491926271  0.5000000000000000   F   F   F
  6.6680111904978983  9.6065357491926271  0.5000000000000000   F   F   F
  3.7546337913945766  4.5604180723228787  0.5000000000000000   F   F   F
  9.5813885896011755  4.5604180723228787  0.5000000000000000   F   F   F
  2.9133773991032781  8.4101961281162527  2.4321633756321481   F   F   F
  8.7401321973098778  8.4101961281162527  2.4321633756321481   F   F   F
 -0.0000000000000436  3.3640784512465056  2.4321633756321481   F   F   F
  5.8267547982065562  3.3640784512465056  2.4321633756321481   F   F   F
  7.8997978468051340  5.5310178035676421  5.2204212265504495   T   T   T
  8.7401321973098778  9.3788974631443622  3.8043095294545042   F   F   F
 -0.0000000000000436  4.3327797862746138  3.8043095294545042   F   F   F
  5.8267547982065562  4.3327797862746138  3.8043095294545042   F   F   F
  4.9854984059152585  9.6065357491926289  0.5000000000000000   F   F   F
 10.8122532041218591  9.6065357491926289  0.5000000000000000   F   F   F
  2.0721210068119369  4.5604180723228804  0.5000000000000000   F   F   F
  7.8988758050185366  4.5604180723228804  0.5000000000000000   F   F   F
  0.0000000000000009  0.0000000000000000  1.8667589503465760   F   F   F
  5.8267547982066006  0.0000000000000000  1.8667589503465760   F   F   F
  2.9133773991032790  5.0461176768697538  1.8667589503465760   F   F   F
  8.7401321973098796  5.0461176768697538  1.8667589503465760   F   F   F
  0.0000001399441440 -0.0000000453960996  6.5934031400273820   T   T   T
  5.8267548385203272  0.0000003570489792  6.5934032067930062   T   T   T
  2.9133772390843222  5.0461177102202841  6.5934031486412632   T   T   T
  8.7401318632247129  5.0461177982541949  6.5934026430425829   T   T   T
  8.7403630572215079  4.0759166616626379  5.2204215262757216   T   T   T
  2.0744574342890347  7.9258454606021980  3.8043095294545042   F   F   F
  2.0730432471023246  5.5310180190347085  5.2204214674031206   T   T   T
 10.8131751980612805  0.4849002731290053  5.2204218706282184   T   T   T
  4.9864209130825925  0.4849001764221693  5.2204215049406786   T   T   T
  5.8267547982065562  0.9713992090937540  0.5000000000000000   F   F   F
 -0.0000000000000436  0.9713992090937540  0.5000000000000000   F   F   F
  8.7401321973098778  6.0175168859635022  0.5000000000000000   F   F   F
  2.9133773991032781  6.0175168859635022  0.5000000000000000   F   F   F
  2.9136084482714528  4.0759171559481029  5.2204216048974308   T   T   T
  0.0002310397073226  9.1220348030478533  5.2204221359726155   T   T   T
  5.8269858737861417  9.1220345292320832  5.2204220348356918   T   T   T
  3.7522973639175210  7.9258454606021980  3.8043095294545042   F   F   F
  9.5790521621241211  7.9258454606021980  3.8043095294545042   F   F   F
  0.8389199648141999  2.8797277837324504  3.8043095294545042   F   F   F
  6.6656747630207995  2.8797277837324504  3.8043095294545042   F   F   F
  0.0000000000000009  0.0000000000000000  0.8416304243563442   F   F   F
  2.9133773991032781  8.4101961281162527  3.4593945362622507   F   F   F
  8.7401321973098796  5.0461176768697538  0.8416304243563442   F   F   F
  2.9133773991032790  5.0461176768697538  0.8416304243563442   F   F   F
  5.8267547982066006  0.0000000000000000  0.8416304243563442   F   F   F
  8.7401321973098778  8.4101961281162527  3.4593945362622507   F   F   F
  8.7401314857739578  5.0461179208326659  5.5634940162850084   T   T   T
  2.9133774803291805  5.0461173800223351  5.5634933887353091   T   T   T
  5.8267544943538274 -0.0000002794824486  5.5634937195463037   T   T   T
 -0.0000000752660684 -0.0000006854417136  5.5634936316126717   T   T   T
  5.8267546352877195  6.7281571875223385  8.0841747352277089   T   T   T
  0.0000009083269386  6.7281567983544344  8.0841743354732021   T   T   T
  8.7401313510147745  1.6820393015858863  8.0841749912987684   T   T   T
  2.9133778080095345  1.6820392103572157  8.0841742351355528   T   T   T
  5.8267547982065562  3.3640784512465056  3.4593945362622507   F   F   F
 -0.0000000000000436  3.3640784512465056  3.4593945362622507   F   F   F
  5.8255704772340273  4.7721451070847278  5.9183370856507711   T   T   T
 -0.0011836942249355  4.7721452019271560  5.9183370047626669   T   T   T
  8.7389477906833442  9.8182633588422750  5.9183367251025834   T   T   T
  2.9121932286749312  9.8182633794519418  5.9183371170279919   T   T   T
  7.0480204256588932  4.0694165199642418  7.9060477531038291   T   T   T
  1.2212657378967366  4.0694164079810182  7.9060478269164545   T   T   T
  9.9613973044637785  9.1155348764877697  7.9060478368258762   T   T   T
  4.1346431736243900  9.1155349767764147  7.9060474636419702   T   T   T
  7.0455803710100859  7.4318461750463234  1.3166483637921624   F   F   F
  1.2188255728034860  7.4318461750463234  1.3166483637921624   F   F   F
  9.9589577701134075  2.3857284981765692  1.3166483637921624   F   F   F
  4.1322029719068079  2.3857284981765692  1.3166483637921624   F   F   F
  5.8267547982065562  8.1378756805668004  3.3010724808649616   F   F   F
 -0.0000000000000436  8.1378756805668004  3.3010724808649616   F   F   F
  8.7401321973098778  3.0917580036970467  3.3010724808649616   F   F   F
  2.9133773991032776  3.0917580036970467  3.3010724808649616   F   F   F
  1.6945479380495134  7.7051377970432764  5.9183368051958434   T   T   T
  7.5213021454397087  7.7051374518342231  5.9183370074161052   T   T   T
  4.6079250544248582  2.6590190891931811  5.9183366805983191   T   T   T
 10.4346796012693428  2.6590192778478121  5.9183370050781532   T   T   T
  2.9135854849547624  6.9998804208847529  7.9060479803007899   T   T   T
  8.7403398355800768  6.9998804910963095  7.9060476434461622   T   T   T
  0.0002087187435567  1.9537621792294531  7.9060479118059748   T   T   T
  5.8269627016880303  1.9537622445944129  7.9060480136758100   T   T   T
 10.4346840236096270  7.4318461750463234  1.3166483637921624   F   F   F
  4.6079292254030264  7.4318461750463234  1.3166483637921624   F   F   F
  7.5213066245063480  2.3857284981765683  1.3166483637921624   F   F   F
  1.6945518262997479  2.3857284981765683  1.3166483637921624   F   F   F
  7.0476070722104200  6.0232975134561082  3.3010724808649616   F   F   F
  1.2208522740038208  6.0232975134561082  3.3010724808649616   F   F   F
  9.9609844713137434  0.9771798365863533  3.3010724808649616   F   F   F
  4.1342296731071428  0.9771798365863533  3.3010724808649616   F   F   F
  4.1333909788830718  7.7071884516478555  5.9183368217275296   T   T   T
  9.9601457031699496  7.7071888093954337  5.9183365928529206   T   T   T
  1.2200138814097574  2.6610704323745353  5.9183364829874616   T   T   T
  7.0467684886173050  2.6610707170916652  5.9183369725311499   T   T   T
  1.6919035888742813  9.1151739384763193  7.9060478104323861   T   T   T
  7.5186583127475846  9.1151746185959190  7.9060476453428867   T   T   T
  4.6052809707364419  4.0690564248891370  7.9060480522297993   T   T   T
 10.4320354264206294  4.0690562260736547  7.9060477286455049   T   T   T
  1.6925251250994147  0.9771798365863532  3.3010724808649616   F   F   F
  7.5192799233060139  0.9771798365863532  3.3010724808649616   F   F   F
  4.6059025242026914  6.0232975134561082  3.3010724808649616   F   F   F
 10.4326573224092911  6.0232975134561082  3.3010724808649616   F   F   F
  2.9133773991032781  0.2746606805166148  1.3166483637921624   F   F   F
  8.7401321973098778  0.2746606805166148  1.3166483637921624   F   F   F
 -0.0000000000000436  5.3207783573863692  1.3166483637921624   F   F   F
  5.8267547982065562  5.3207783573863692  1.3166483637921624   F   F   F
  5.8267548602450736  3.3640785054974742  6.9263600405913763   T   T   T
  0.0000001782966895  3.3640784712052074  6.9263602748799098   T   T   T
  8.7401320555959110  8.4101964109093590  6.9263600150120732   T   T   T
  2.9133773800145915  8.4101957930991755  6.9263599921482903   T   T   T
  5.8267547982065562  6.7281569024930041  2.2987940834959804   F   F   F
 -0.0000000000000436  6.7281569024930041  2.2987940834959804   F   F   F
  8.7401321973098778  1.6820392256232506  2.2987940834959804   F   F   F
  2.9133773991032781  1.6820392256232506  2.2987940834959804   F   F   F
