H  O  F  Si P 
 1.0000000000000000
     9.8224603672816997    0.0000000000000000    0.0000000000000000
    -4.9112301836409040    8.5195690981523047    0.0000000000000000
     0.0000000000000583    0.0360251379324295   26.9999796582416955
 H   O   F   Si  P  
  16  48   3  20   1
Selective dynamics
Cartesian
  0.3421619000000000  1.7533649000000000  0.6892279900000000   F   F   F
  6.2343536625159164  1.8103450656328779 10.4130483399420708   T   T   T
  5.2533920900000002  1.7533649000000000  0.6892279900000000   F   F   F
  1.2176329019952656  1.7608861048223479 10.4599814429948026   T   T   T
  2.7977769900000000  2.5086273800000001  0.0979647200000000   F   F   F
  7.7090071800000004  2.5086273800000001  0.0979647200000000   F   F   F
  3.7488670947919731  6.0589459622702595 10.4469351543282656   T   T   T
  6.7941190128359157  3.9958603343275390 10.5285361196924896   T   T   T
 -2.1134531900000000  6.0131494500000002  0.6892279900000000   F   F   F
  2.7977769900000000  6.0131494500000002  0.6892279900000000   F   F   F
  0.3421619000000000  6.7684119300000001  0.0979647200000000   F   F   F
  1.8619054251202969  3.9258508776195358 10.5369446549695809   T   T   T
  5.2533920900000002  6.7684119300000001  0.0979647200000000   F   F   F
 -1.2084430515596112  6.0443785446236964 10.4624429929989251   T   T   T
 -0.5926569990579029  8.2225989882045667 10.4972506260893450   T   T   T
  4.3719938800224494  8.2476925568643598 10.4998441480834348   T   T   T
  5.5175679061179297  4.7862797003338473  8.2696064462640262   T   T   T
 -1.4595988974985481  7.7651406821429489 10.5596977295890539   T   T   T
  5.6850238800000001  4.8516745500000003  2.9198781800000000   F   F   F
  0.2382738322665412  1.7033940734756650  7.0661201745902043   T   T   T
  0.7737937000000000  4.8516745500000003  2.9198781800000000   F   F   F
  0.6131629641946893  4.8044731028418308  8.3024952503002520   T   T   T
  7.9730083524402469  0.5403007465129452  8.2686655411653689   T   T   T
 -2.1134531900000000  6.0139607699999997  1.6892276600000000   F   F   F
  5.6303222031284204  3.6899870447028111  5.3204292203207775   T   T   T
  3.2294087899999999  0.5918900000000000  2.9198781800000000   F   F   F
  5.2533920900000002  6.7692232600000004  1.0979643900000000   F   F   F
  6.2414539330303507  1.1847856792246787  4.7207423337002732   T   T   T
 -1.2209985845354285  5.0533721121755288 10.3797956653288761   T   T   T
  7.7090071800000004  2.5094387100000000  1.0979643900000000   F   F   F
  7.6002592218710543  2.5622502254747670  6.6025627720741129   T   T   T
  2.7977769900000000  6.0139607699999997  1.6892276600000000   F   F   F
 -1.1107568029784338  5.4487619184407228  4.7234024547227307   T   T   T
  1.3393607491842223  1.1813277284785986  4.7305253626155483   T   T   T
  5.1443716548930123  6.8201463207060664  6.6112609552691444   T   T   T
  3.7134380101251181  5.0677817249180857 10.3728570908957938   T   T   T
  3.8414560936788584  2.8903786698695755  9.0372846570309751   T   T   T
  8.1406389699999995  0.5918900000000000  2.9198781800000000   F   F   F
 -1.1157143100000000  3.1040166999999999  3.4881581399999999   F   F   F
  3.0576383890274244  0.5421363754168488  8.2920554127410266   T   T   T
  5.1451412061546700  1.6943895398343520  7.0631426623702920   T   T   T
  3.7866559118910472  5.4447646486525603  4.7262533603277097   T   T   T
 -1.0901229897158156  2.8991991144025855  9.0233740191931275   T   T   T
 -3.5713294000000002  7.3638012499999999  3.4881581399999999   F   F   F
  3.5156120719823831  7.7608349759867252 10.5280641695245940   T   T   T
  6.2018960219376904  0.8163530555559467 10.3856630362502553   T   T   T
  1.3399007900000000  7.3638012499999999  3.4881581399999999   F   F   F
 -3.5248637583504299  7.1313292803936843  9.0273821249269925   T   T   T
  1.3906338868744152  7.1577465704836145  9.0480380839035401   T   T   T
  3.7955158800000000  3.1040166999999999  3.4881581399999999   F   F   F
  0.3421619000000000  6.7692232600000004  1.0979643900000000   F   F   F
 -1.7284805080642329  7.9473670735966788  5.3208543287268268   T   T   T
  1.1853468312053692  0.7734788407031018 10.3398047871236738   T   T   T
  3.1739103531462209  7.9489061637966110  5.3226892094037241   T   T   T
  2.6923530939173688  2.5642607233449897  6.6171516171046347   T   T   T
  2.7977769900000000  2.5094387100000000  1.0979643900000000   F   F   F
  2.6896025570819515  5.9600776941242373  7.0695163393373415   T   T   T
  0.3421619000000000  1.7541762299999999  1.6892276600000000   F   F   F
  5.2533920900000002  1.7541762299999999  1.6892276600000000   F   F   F
  0.7259685952817632  3.6890326919371108  5.3198392678973772   T   T   T
  5.9395606837582298  3.5089521582684666 10.5533284196342674   T   T   T
  0.2303775897807631  6.8249371712344358  6.6306069996644128   T   T   T
 -2.2225493825853930  5.9448076995825971  7.0525149896168902   T   T   T
  0.9960061393900635  3.4647679755851031 10.5517508290538338   T   T   T
  3.2570982058351832  1.3226408147662603 14.0424432127323353   T   T   T
  4.0671699362029203  3.4914662148328794 13.7594296132964011   T   T   T
  3.3862751872698391  2.2452882118624045 11.8976184820964015   T   T   T
 -0.1601045023988369  4.1225727064438349  9.5664654712225428   T   T   T
 -3.6793100190214778  6.1778533348135278  7.7177915256088712   T   T   T
 -3.5993477800000000  6.2518063200000000  2.2994260700000000   F   F   F
 -1.2256912206114792  1.9327202591419212  7.7183183262969379   T   T   T
  3.7674975000000002  1.9920217700000000  2.2994260700000000   F   F   F
 -1.1437326800000001  1.9920217700000000  2.2994260700000000   F   F   F
  7.1854061777759766  0.0183087655780620  4.0913822413407459   T   T   T
  1.2480723939898677  2.2789594613196997  5.9181740362568895   T   T   T
  3.6964667642761326  6.5378954120329711  5.9190569600857339   T   T   T
  7.2415331230843840 -0.1313625919669317  9.5612327170623281   T   T   T
  6.1512863646966007  2.2772234714917778  5.9137497554456839   T   T   T
  3.6879479339974970  1.9293085413537356  7.7312853191780402   T   T   T
  1.3118824099999999  6.2518063200000000  2.2994260700000000   F   F   F
  1.2340751564326198  6.1948318043063066  7.7407392228822811   T   T   T
  4.7284620150500691  4.2793991492181549  4.0912598030296783   T   T   T
 -1.2074406078785334  6.5366273602778167  5.9187751430110067   T   T   T
 -0.1781718624388355  4.2763686357973825  4.0912833065856162   T   T   T
  4.7609575265856829  4.1304047681139320  9.5568635184411068   T   T   T
  2.2831853937138709 -0.1364349414918345  9.5567157904561757   T   T   T
  2.2780557917512576  0.0154994165521950  4.0926567811977455   T   T   T
  4.3496932365482488  2.0542568607525435 13.1518987614974101   T   T   T
