H  N  F  Si
 1.0000000000000000
    11.6535095964131994    0.0000000000000000    0.0000000000000000
     0.0000000000000000   10.0922353537395004    0.0000000000000000
     0.0000000000000000    0.0000000000000000   30.0000000000000000
 H   N   F   Si 
  91  16  75   8
Selective dynamics
Cartesian
  0.9431109161250271  0.0708032904177171  5.7857581360415837   T   T   T
  9.2850145213963682  5.8042494315280404  5.3117399544303892   T   T   T
 10.7135519654964995  4.1355516997378583 10.6766643349581578   T   T   T
  3.3790303617190713  5.7729044223527843  5.3027185544926274   T   T   T
  9.5289960963790836  3.9472669793763546 15.1635666182523217   T   T   T
  6.8078624328886725  0.1183519726777873  5.6955222717366780   T   T   T
  4.4898508389289002  3.3968755342259644 10.7918739456364090   T   T   T
  2.5193640439334342  2.0465835858106387  9.2742165524288112   T   T   T
  4.4412506855872067  7.8501109345160662 12.1454096715975179   T   T   T
  3.7546337913945766  4.5604180723228787  0.5000000000000000   F   F   F
  4.6090076236284458  1.0417600173048791 13.4841450233388134   T   T   T
  6.6680111904978983  9.6065357491926271  0.5000000000000000   F   F   F
  2.6716730673283946  6.7628519104769369  9.3793257743615719   T   T   T
  3.0845045598880767  9.2724671704231838 11.6156012352119369   T   T   T
  1.8302681650296135  4.1641306159681424 12.5419713165239788   T   T   T
  5.0771902105198299  6.7006803365427503  8.4707822295888420   T   T   T
 -0.0522960374478946  5.8964637592415041  9.2205958936246528   T   T   T
  1.1207458060551121  6.0389630474202081 14.5943114124129192   T   T   T
  8.3191589565829176  0.6049279105619412  8.5742645123434720   T   T   T
  7.9807294001021543  0.3933607374283601 12.1032756419555874   T   T   T
  2.5310086550956141  0.5564262404344961  8.5058147925100052   T   T   T
 10.9083264149192694  2.2178281657551739 11.0927253102565881   T   T   T
  6.4246568044530790  3.4637984468540552 10.6127536359625250   T   T   T
  6.6656747630207995  2.8797277837324504  3.8043095294545042   F   F   F
  0.8389199648141999  2.8797277837324504  3.8043095294545042   F   F   F
  9.5790521621241211  7.9258454606021980  3.8043095294545042   F   F   F
 -0.0000000000000436  3.3640784512465056  2.4321633756321481   F   F   F
  2.3115543856459357  1.9744273591324559  7.6097399959493028   T   T   T
  2.9791367394154067  4.1955107178473625  4.8434292330390427   T   T   T
  8.7401321973098778  6.0175168859635022  0.5000000000000000   F   F   F
 -0.0000000000000436  0.9713992090937540  0.5000000000000000   F   F   F
  5.8267547982065562  0.9713992090937540  0.5000000000000000   F   F   F
  5.2932262164446024  0.8228558396653364  5.4252742321387757   T   T   T
  7.9732848251469335  4.0967339446726685 11.5332370515781211   T   T   T
  0.8445570059919347  2.3777678069902630 12.1994343490696640   T   T   T
  8.7401321973098778  9.3788974631443622  3.8043095294545042   F   F   F
  0.8412563922912988  9.6065357491926271  0.5000000000000000   F   F   F
  7.7567146615427278  5.2085457759839082  5.7140144122673586   T   T   T
  5.8267547982065562  3.3640784512465056  2.4321633756321481   F   F   F
  8.0023329899989104  8.9831877250299712 10.7685287969436914   T   T   T
  8.7401321973098778  8.4101961281162527  2.4321633756321481   F   F   F
  2.9133773991032781  8.4101961281162527  2.4321633756321481   F   F   F
  9.5813885896011755  4.5604180723228787  0.5000000000000000   F   F   F
  2.9133773991032781  9.3788974631443622  3.8043095294545042   F   F   F
  2.4315487366265840  5.7725761183171480 11.2931546882136491   T   T   T
  8.2868600203567624  2.1369066753158390  9.2601420223231177   T   T   T
 11.1602020347302968  9.1417811050927238 11.8181335623938661   T   T   T
  6.0064189944925150  6.6401956772138391  9.8576200224496180   T   T   T
  9.7951131337470851  8.0878506784688433 12.7938618527958088   T   T   T
 10.4418064367880401  6.7533990514203062  8.3397763674582404   T   T   T
  3.6407320824984750  1.9508106643924454 11.9664859742565817   T   T   T
  2.0744574342890347  7.9258454606021980  3.8043095294545042   F   F   F
  2.9133773991032790  5.0461176768697538  1.8667589503465760   F   F   F
  5.8267547982066006  0.0000000000000000  1.8667589503465760   F   F   F
  0.0000000000000009  0.0000000000000000  1.8667589503465760   F   F   F
  7.8988758050185366  4.5604180723228804  0.5000000000000000   F   F   F
  2.0721210068119369  4.5604180723228804  0.5000000000000000   F   F   F
 10.8122532041218591  9.6065357491926289  0.5000000000000000   F   F   F
  2.9133773991032781  6.0175168859635022  0.5000000000000000   F   F   F
 11.1262208852567515  0.8476305809465351  5.4646133775115899   T   T   T
  1.8811518369356743  5.1064335442396667  5.7337576921239393   T   T   T
  9.2735875818882292  4.7520491563234462 12.9144295577672370   T   T   T
  8.8240717022570916  4.2491033103147480  4.8391484703396781   T   T   T
  9.1589259788927926  4.5887709440074209  6.4551453637247418   T   T   T
  3.3275789082574061  4.5623689699720051  6.4499062193301118   T   T   T
  5.4230727695329897 -0.5037886540119261  6.4452860838655086   T   T   T
 -0.4988193026058887 -0.4467398394922825  6.5229530616793960   T   T   T
  6.6200007595092130  7.4089329804881734  8.5042472809492491   T   T   T
  5.2959866212846967  6.0228284974569100 12.3748784396126563   T   T   T
  0.3581009728821489  6.6061667852999486  7.7290983313906318   T   T   T
  8.1666127799274246  1.9631614121078462  7.5964105205983383   T   T   T
 10.8145896315989134  2.8797277837324491  3.8043095294545042   F   F   F
  6.6564157911284685  0.7011232812037564 13.6432385006984251   T   T   T
 -0.0000000000000436  4.3327797862746138  3.8043095294545042   F   F   F
  4.9854984059152585  9.6065357491926289  0.5000000000000000   F   F   F
  3.7522973639175210  7.9258454606021980  3.8043095294545042   F   F   F
  8.7401321973098796  5.0461176768697538  1.8667589503465760   F   F   F
  3.8313658629672473  1.6403351814005167  8.3165454834027148   T   T   T
  4.7936325976326053  5.0156005276633664 14.0061405645805124   T   T   T
  9.6429877782612881  1.6509365898941066  8.3841636295891622   T   T   T
  1.2229281870849142  9.3084072535072000 10.8015269508839982   T   T   T
  0.0673255570986735  7.5701501087315410  9.0649892789006508   T   T   T
  8.4328265469428594  7.3731064237197428 11.6949958140928683   T   T   T
  6.4399455997804358  5.7054946711267966  8.5263123768583355   T   T   T
 -0.2275063347322669  9.3661578686379734  4.8906174155908229   T   T   T
  5.8267547982065562  4.3327797862746138  3.8043095294545042   F   F   F
  5.6697311582580108  9.3809847211583222  4.7922585391790777   T   T   T
  7.9012122324956344  7.9258454606021980  3.8043095294545042   F   F   F
 11.0475495093476646  5.5690978474281163 13.6077503849500516   T   T   T
  4.9878348333923128  2.8797277837324491  3.8043095294545042   F   F   F
  3.0432577366781874  5.3182224230445705 15.1115088688996426   T   T   T
  2.8850057585271287  4.9129845958596094  5.5752048940776868   T   T   T
  8.7506370572328276  4.9650191327570630  5.5752634601768127   T   T   T
  5.8267547982066006  0.0000000000000000  0.8416304243563442   F   F   F
 -0.1993332937808768  6.7012364084029690  8.5891311250506632   T   T   T
  8.6076925930849111  1.5867823738426126  8.4565449738065066   T   T   T
  8.7401321973098796  5.0461176768697538  0.8416304243563442   F   F   F
  2.9133773991032790  5.0461176768697538  0.8416304243563442   F   F   F
  5.7959649812315419 -0.0659592493642703  5.5833145992084683   T   T   T
  8.7401321973098778  8.4101961281162527  3.4593945362622507   F   F   F
  6.0396797862674418  6.6178030432144626  8.8326296159408333   T   T   T
  2.8006101767046956  1.5521724836681035  8.4254447148903608   T   T   T
  5.8267547982065562  3.3640784512465056  3.4593945362622507   F   F   F
 -0.0000000000000436  3.3640784512465056  3.4593945362622507   F   F   F
 -0.0730767736826467 -0.0615448748527707  5.6594799996217668   T   T   T
  0.0000000000000009  0.0000000000000000  0.8416304243563442   F   F   F
  2.9133773991032781  8.4101961281162527  3.4593945362622507   F   F   F
 10.1958940675730823  4.0356500352183247  7.7492493077452353   T   T   T
  2.9133773991032776  3.0917580036970467  3.3010724808649616   F   F   F
 -0.0000000000000436  8.1378756805668004  3.3010724808649616   F   F   F
  5.8267547982065562  8.1378756805668004  3.3010724808649616   F   F   F
  4.1322029719068079  2.3857284981765692  1.3166483637921624   F   F   F
  9.9589577701134075  2.3857284981765692  1.3166483637921624   F   F   F
  1.2188255728034860  7.4318461750463234  1.3166483637921624   F   F   F
  7.0455803710100859  7.4318461750463234  1.3166483637921624   F   F   F
  4.2959296431148788  9.0627610101259624  7.7529750009609231   T   T   T
  5.1794334107993842  6.7788801729118591 11.6768025543316352   T   T   T
  3.9102616761114612  8.6299576799198228 12.4925851622495845   T   T   T
  3.2611932137029065  6.8915310944010821  8.1936581410458995   T   T   T
  4.3787540834787837  4.0983865871259546  7.6994968600578995   T   T   T
  7.5445234183930605  8.9581320236802515  8.0146611590945120   T   T   T
  1.9198608592955133  8.9742267023924001  8.2182221546421363   T   T   T
  7.4635171478009257  7.5792233696977886  6.0143562973274616   T   T   T
  1.6408217065790882  7.4166392065573064  6.4147109126561492   T   T   T
  7.9350652387932685  7.6308453346534977 10.8317745770242109   T   T   T
  7.3662487154689993  3.1066591697254355 10.8073717923361396   T   T   T
  2.6566206069430529  5.1978919564033692 12.0806329319194141   T   T   T
 10.5724184013338114  9.1889215826905737 12.6357642017997591   T   T   T
  4.1342296731071428  0.9771798365863533  3.3010724808649616   F   F   F
  8.7401321973098778  3.0917580036970467  3.3010724808649616   F   F   F
  3.7147222249616996  1.3041322410434550 13.0707464790309658   T   T   T
  2.4998550491584992  9.7616630940887532 10.9544696861431241   T   T   T
  5.8267547982065562  5.3207783573863692  1.3166483637921624   F   F   F
 10.0056382480273545  4.6149792327966628 13.6242349474185698   T   T   T
  5.9362637619217669  4.6424934076386934  5.9252298325976867   T   T   T
 11.1263274837139701  5.0141497345416157 10.7721447671563730   T   T   T
  8.8488959103266964  6.9127490610708371  7.8961181510428924   T   T   T
  1.6945518262997479  2.3857284981765683  1.3166483637921624   F   F   F
  9.8865979806767132  7.6608025420729104  5.8309994624399026   T   T   T
  9.9609844713137434  0.9771798365863533  3.3010724808649616   F   F   F
  7.0476070722104200  6.0232975134561082  3.3010724808649616   F   F   F
  9.9793762078913968  9.0744240443708897  7.7826063882302412   T   T   T
  0.9633246262164966  3.9815693446900373  8.2023073108346836   T   T   T
  6.8036292315243490  4.0936267845557355  8.1132883134818918   T   T   T
  2.6941667731806933  9.6038442131676547  5.9876243788061014   T   T   T
  8.5670254647518629  9.7409155989858238  5.9428521532320593   T   T   T
  4.6973754410983286  2.5394632598645015  5.8649585478892083   T   T   T
 10.5516730465687285  2.5636503391311987  5.8618118061752069   T   T   T
  4.6079292254030264  7.4318461750463234  1.3166483637921624   F   F   F
  1.6925251250994147  0.9771798365863532  3.3010724808649616   F   F   F
 10.1320891194391542  2.7375884995890689 10.7286991111506911   T   T   T
  7.8896675695668064  0.7096915374058436 13.0523654169850172   T   T   T
  1.8401247355883115  5.9424641834125671 15.3002818342116260   T   T   T
  8.3247767828703854  4.9127770901888859 12.0123917123294000   T   T   T
  0.4327173064658132  1.6644758281882459 11.6226010861502882   T   T   T
  2.1846650324225783  6.6950533736842166 10.2771769193530140   T   T   T
  7.5213066245063480  2.3857284981765683  1.3166483637921624   F   F   F
  3.5309512162669394  2.4855440299885294 11.0820667258177199   T   T   T
 10.4346840236096270  7.4318461750463234  1.3166483637921624   F   F   F
  5.5407275956747979  1.9989114865254463  8.0784720771860705   T   T   T
 -0.2970212985136133  1.8952736330361879  8.0432661706407949   T   T   T
  1.2208522740038208  6.0232975134561082  3.3010724808649616   F   F   F
  7.0923450419476168  2.5293471170739319  6.2806679833490353   T   T   T
  1.2814286612308354  2.5176936808165533  6.2933421199367787   T   T   T
  3.9947239481073695  7.5232150481338662  5.9413480870817432   T   T   T
  4.6059025242026914  6.0232975134561082  3.3010724808649616   F   F   F
  9.1448943526742372  7.3024065099641522 12.8115417424078082   T   T   T
  1.3281466640011474  3.4277181029806836 12.9955944657258478   T   T   T
  8.0784020969355979  9.9983518448871322 10.8041867702076324   T   T   T
  9.2688366931292041  3.6227358188131698 16.0263486737393421   T   T   T
  0.1310610040906725  4.6560673049976016  6.0213981020780007   T   T   T
  5.2213097729065039  4.0397215116417584 10.5195130195956583   T   T   T
 11.7888545669011400  6.2366136094391464 13.6455499124973585   T   T   T
  3.9473916633172244  4.8615610885349598 15.0428700960312884   T   T   T
  5.7518732870698566  0.6876937844350600 14.1077070197604471   T   T   T
  5.4791106468820816  5.0894548234090724 13.2557271890727453   T   T   T
  0.2624380070473617  9.0040603761944791 10.6762983984206414   T   T   T
 -0.0000000000000436  5.3207783573863692  1.3166483637921624   F   F   F
  8.7401321973098778  0.2746606805166148  1.3166483637921624   F   F   F
  2.9133773991032781  0.2746606805166148  1.3166483637921624   F   F   F
 10.4326573224092911  6.0232975134561082  3.3010724808649616   F   F   F
  7.5192799233060139  0.9771798365863532  3.3010724808649616   F   F   F
 -0.0770748554299647  3.2870745827031822  7.0670068769327088   T   T   T
  5.7413058354126454  3.3220974805606698  7.0096171786674395   T   T   T
  2.9133773991032781  1.6820392256232506  2.2987940834959804   F   F   F
 -0.0000000000000436  6.7281569024930041  2.2987940834959804   F   F   F
  2.9543371636070588  8.2858046971067445  7.0517211827621935   T   T   T
  8.7065773973549128  8.3167999865975251  6.9106984122612714   T   T   T
  5.8267547982065562  6.7281569024930041  2.2987940834959804   F   F   F
  8.7401321973098778  1.6820392256232506  2.2987940834959804   F   F   F
