F  H  I  N  Si
 1.0000000000000000
    11.6531699554687993    0.0000000000000000    0.0000000000000000
     0.0000000000000000   10.0919412160536002    0.0000000000000000
     0.0000000000000000    0.0000000000000000   30.0000000000000000
 F   H   I   N   Si 
  54  65   1  16   8
Selective dynamics
Cartesian
  3.0256594258162468  3.3028880774831975 14.8307262217605018   T   T   T
  9.9605230623642314  0.9772501393769296  3.3003459413423974   F   F   F
  7.5061055442270721  7.9135504371408594  6.0348188169451786   T   T   T
  0.0000000000000366  8.1374409372997452  3.3003459413423974   F   F   F
  2.9132924888672180  3.0914703292729544  3.3003459413423974   F   F   F
  8.7398774666016177  3.0914703292729544  3.3003459413423974   F   F   F
  1.6935230144008373  2.3862244371080581  1.3160654148748374   F   F   F
  7.0472305734970480  6.0232207474037214  3.3003459413423974   F   F   F
  1.2206455957626490  6.0232207474037214  3.3003459413423974   F   F   F
  8.6116570081988861  6.7758025674287010  7.8752178220939957   T   T   T
  5.8265849777344361  8.1374409372997452  3.3003459413423974   F   F   F
  0.1134761861553098  2.0636480252707177  8.2183257152285734   T   T   T
 10.4334004810024528  7.4321950451348497  1.3160654148748374   F   F   F
  4.6068155032680558  7.4321950451348497  1.3160654148748374   F   F   F
  7.0371814140770654  2.8494999503367180  6.0156872186434658   T   T   T
  1.7442794527953078  7.6630237798199463  6.0632381155018802   T   T   T
  2.7831281738501286  7.0710069498921158  8.2099369412723977   T   T   T
 -0.1290754021682119  4.7011815754405184  5.9829454587037727   T   T   T
  5.7870505272404671  4.8856362340778432  6.3663357546217565   T   T   T
  4.5855112912727227  2.8054997356188878  6.1120172805224957   T   T   T
  8.8002344717908834  9.9351965952925756  6.4849911807880352   T   T   T
  1.3446826131777767  4.1477917245698839  7.8191122791587668   T   T   T
  7.1073482549170182  3.9341636363637922  8.2005749487699919   T   T   T
  3.0653868672257683  9.7254390636338410  6.0046633182134057   T   T   T
  9.8809741247558218  8.8218243948358435  8.3631021770221601   T   T   T
 10.3442563611784131  2.6180905581082201  6.3111198683432264   T   T   T
  5.9234598027288490  1.8121742871708495  7.8698065392590717   T   T   T
  9.9596469410679997  2.3862244371080585  1.3160654148748374   F   F   F
  7.0463544522008181  7.4321950451348506  1.3160654148748374   F   F   F
  2.9132924888672185  0.2735217338106973  1.3160654148748374   F   F   F
  1.6926468931046077  0.9772501393769297  3.3003459413423974   F   F   F
 10.4325243597062247  6.0232207474037214  3.3003459413423974   F   F   F
  4.6059393819718260  6.0232207474037214  3.3003459413423974   F   F   F
  7.5192318708390076  0.9772501393769297  3.3003459413423974   F   F   F
  7.4559079090887472  8.8958593824939491  8.2399697456468974   T   T   T
  7.2029714587305422  1.4179645213087064 10.9765998898045130   T   T   T
  4.4072606117491189  3.3460454671982340 12.7771885351622139   T   T   T
  4.3942997069609397  1.5748053427021254 10.7669798140956896   T   T   T
  5.8265849777344370  5.3194923418374893  1.3160654148748374   F   F   F
  7.5201079921352374  2.3862244371080581  1.3160654148748374   F   F   F
  5.6253938130695742  1.1536829050672848 12.9228486354034011   T   T   T
  0.0000000000000379  5.3194923418374893  1.3160654148748374   F   F   F
  8.7398774666016177  0.2735217338106973  1.3160654148748374   F   F   F
  4.1330619633336001  2.3862244371080585  1.3160654148748374   F   F   F
  4.0432941745487190  9.1253246142287185  8.1359517962343624   T   T   T
  7.0592991243462686  3.2143471695329815 12.9791878580100519   T   T   T
  1.6022849449121712  9.2091004043426388  7.8876758512358318   T   T   T
  4.6969057881036749  3.8781102737365383  8.3217732426254933   T   T   T
  1.2197694744664185  7.4321950451348506  1.3160654148748374   F   F   F
  1.0902551106022058  2.5644588184559889  6.0244780340173554   T   T   T
  9.9284873797874162  7.8193012171675118  6.1304892630621310   T   T   T
  4.1449711271926786  7.5595621957900434  6.2454892049643105   T   T   T
  4.1339380846298308  0.9772501393769296  3.3003459413423974   F   F   F
 10.5826549283974884  4.1792291232142285  8.1754279578809275   T   T   T
  8.7398774666016177  8.4099510133779987  2.4334301740582331   F   F   F
  3.1760753221799392  2.4161946105964649 15.1276494942596003   T   T   T
  5.8265849777344005  0.0000000000000000  1.8692122630551729   F   F   F
  0.0000000000000379  0.9710283970615677  0.5000000000000000   F   F   F
  8.7398774666016177  5.0459706080267921  1.8692122630551729   F   F   F
  0.8377148099836284  2.8803255343030250  3.8038507225754685   F   F   F
  8.7398774666016177  6.0169990050883788  0.5000000000000000   F   F   F
 11.0741462142978655  7.5154716320419075  8.5543613659110562   T   T   T
  0.0000000000000009  0.0000000000000000  1.8692122630551729   F   F   F
  0.0891210042798607  9.4648767076005491  4.8869960964200194   T   T   T
  2.9132924888672185  5.0459706080267921  1.8692122630551729   F   F   F
  0.0000000000000379  3.3639804053511888  2.4334301740582331   F   F   F
  5.8265849777344370  3.3639804053511888  2.4334301740582331   F   F   F
  8.2534133583558376  5.5095151338026422  4.8535225840047049   T   T   T
  2.9132924888672185  9.3772607554743246  3.8038507225754685   F   F   F
  8.3755472158989583  2.6137593670583690  8.3726993594809898   T   T   T
  4.7846114603307610  6.8648422273182197  8.8097994230122509   T   T   T
  3.4394909349531053  2.4711560967894233  8.6572701018456577   T   T   T
  3.0590989703799387  1.6834669544417997  7.2517095412884558   T   T   T
  0.4327124309630155 -0.4188255325489029  6.5216782592374827   T   T   T
  0.0230360730979414  6.8159431564857780  7.1852681809113079   T   T   T
  5.6221408932656818  6.5108270718584471  7.4279334863394313   T   T   T
  6.3088440664830161  7.5926475335597710  8.5189707231356131   T   T   T
  1.9245759080079006  1.7017813441893894  8.4731067465066108   T   T   T
 10.8154551454852452  2.8803255343030250  3.8038507225754685   F   F   F
  7.9021626566180254  7.9262961423298357  3.8038507225754685   F   F   F
  8.3784743841806737  1.2869713691795059  9.3879978774503847   T   T   T
 -0.4457369823131918  5.8041776410298560  8.4211465954526457   T   T   T
  6.2078477556785581  5.9202409157620792  8.8481257794698127   T   T   T
  0.8409352596514178  9.6064270175228081  0.5000000000000000   F   F   F
  6.6675202373858173  9.6064270175228081  0.5000000000000000   F   F   F
  2.9132924888672185  6.0169990050883788  0.5000000000000000   F   F   F
  0.4386297142677830  0.9167666864746105  5.5225570401717956   T   T   T
  3.7510072988508103  7.9262961423298357  3.8038507225754685   F   F   F
  9.5775922765852108  7.9262961423298357  3.8038507225754685   F   F   F
  3.3563485846302257  0.7776495795383265  8.6163549915542621   T   T   T
  6.6642997877180274  2.8803255343030250  3.8038507225754685   F   F   F
  6.3261811674062889  9.1988442400676149  5.8177475125442832   T   T   T
  2.9132924888672185  8.4099510133779987  2.4334301740582331   F   F   F
  9.5808127262530363  4.5604564094959974  0.5000000000000000   F   F   F
  3.7542277485186357  4.5604564094959974  0.5000000000000000   F   F   F
  4.9888701677508447  2.8803255343030250  3.8038507225754685   F   F   F
  6.2939261218325813  0.4850780203356348  4.8667842502280036   T   T   T
  8.7300189127533940  1.0772122387709904  7.7526068191913327   T   T   T
  9.7226959646206410  4.9612919616065891  5.5088667143329157   T   T   T
  2.2924068742696155  5.2450941683509535  4.8368485362059275   T   T   T
  3.5066181773316627  5.8755463958776986  5.8034560543949034   T   T   T
 10.6308217453929235  0.1492352679370444  5.8783825249696120   T   T   T
  4.8506442242363628 -0.0906505242809978  5.5558505280483841   T   T   T
  5.8265849777344370  0.9710283970615677  0.5000000000000000   F   F   F
  2.0755776788836262  7.9262961423298357  3.8038507225754685   F   F   F
  3.4803096578404373  4.2132123689765946  5.4883923592354229   T   T   T
  2.3199813913075058  4.8770659853561336  6.4823277478583252   T   T   T
  8.5546380808441320  5.6114526713212296  6.5111983432831337   T   T   T
  6.0158751152646861  0.6159666216904216  6.5260594970593884   T   T   T
  8.7398774666016177  9.3772607554743246  3.8038507225754685   F   F   F
  0.0000000000000379  4.3312901474475138  3.8038507225754685   F   F   F
  5.8265849777344370  4.3312901474475138  3.8038507225754685   F   F   F
  9.8468951186138050  1.8551307116167495  8.7258227196404867   T   T   T
 10.8122346958174198  9.6064270175228099  0.5000000000000000   F   F   F
  2.0723572292158399  4.5604564094960001  0.5000000000000000   F   F   F
  7.8989422069502391  4.5604564094960001  0.5000000000000000   F   F   F
  0.9721903805495513  6.7672984008075225  8.5347444625379829   T   T   T
  4.9856497180830210  9.6064270175228099  0.5000000000000000   F   F   F
  8.2802582702803171  4.1113030665083574  5.7757789372639179   T   T   T
  5.7841163839301197  2.5600218489452229 11.7116048716482677   T   T   T
 -0.0180056621317104  0.0047263626678002  5.6917225074570199   T   T   T
  2.9017567098653889  5.0522642829174487  5.6426542961280770   T   T   T
  0.0000000000000009  0.0000000000000000  0.8425449303043500   F   F   F
  5.8265849777344370  3.3639804053511888  3.4597557168440631   F   F   F
  5.7321370072099853  6.7301608679622138  8.4321873794784725   T   T   T
  2.9132924888672185  8.4099510133779987  3.4597557168440631   F   F   F
  8.8391380911605175  1.7082662886887996  8.5703028684391764   T   T   T
  8.7047747927117403  5.0483820565675792  5.6535224331940475   T   T   T
 -0.0076221978752836  6.7218657199016478  8.2107930229889075   T   T   T
  8.7398774666016177  8.4099510133779987  3.4597557168440631   F   F   F
  5.8265849777344005  0.0000000000000000  0.8425449303043500   F   F   F
  2.9374148809973790  1.6561270313508014  8.2725451017117297   T   T   T
  2.9132924888672185  5.0459706080267921  0.8425449303043500   F   F   F
  8.7398774666016177  5.0459706080267921  0.8425449303043500   F   F   F
  5.8687330821068162  0.0287015963252070  5.6837360610600678   T   T   T
  0.0000000000000379  3.3639804053511888  3.4597557168440631   F   F   F
  2.8956680780460720  8.3977876227556827  7.1083475229701918   T   T   T
  8.7107516775855700  8.3508273512306559  7.2095809819382826   T   T   T
  2.9132924888672185  1.6819902026756042  2.3016856341631255   F   F   F
  5.8265849777344370  6.7279608107023954  2.3016856341631255   F   F   F
  8.7398774666016177  1.6819902026756042  2.3016856341631255   F   F   F
  0.0000000000000379  6.7279608107023954  2.3016856341631255   F   F   F
 -0.0067698864048322  3.3728691083689637  7.0983011333195840   T   T   T
  5.8491982918202252  3.3682914729520586  7.1624553199376244   T   T   T
