H  N  F  Si I 
 1.0000000000000000
    11.6531699554687993    0.0000000000000000    0.0000000000000000
     0.0000000000000000   10.0919412160536002    0.0000000000000000
     0.0000000000000000    0.0000000000000000   30.0000000000000000
 H   N   F   Si  I  
  65  16  54   8   1
Selective dynamics
Cartesian
  3.7542277485186357  4.5604564094959974  0.5000000000000000   F   F   F
  8.7398774666016177  6.0169990050883788  0.5000000000000000   F   F   F
  0.8377148099836284  2.8803255343030250  3.8038507225754685   F   F   F
  8.7398774666016177  5.0459706080267921  1.8692122630551729   F   F   F
  0.0000000000000379  0.9710283970615677  0.5000000000000000   F   F   F
  5.8265849777344005  0.0000000000000000  1.8692122630551729   F   F   F
  3.5421021659376253  3.1168604736175309 14.0450607017898577   T   T   T
  8.7398774666016177  8.4099510133779987  2.4334301740582331   F   F   F
  4.9888701677508447  2.8803255343030250  3.8038507225754685   F   F   F
 11.0433712243344271  7.5171911409149841  8.5745048185526773   T   T   T
  9.5808127262530363  4.5604564094959974  0.5000000000000000   F   F   F
  2.9132924888672185  8.4099510133779987  2.4334301740582331   F   F   F
  6.3057374889159785  9.1724709418930441  5.8104726203685209   T   T   T
  6.6642997877180274  2.8803255343030250  3.8038507225754685   F   F   F
  3.3300667786944609  0.8282716565152064  8.7410051974820995   T   T   T
  9.5775922765852108  7.9262961423298357  3.8038507225754685   F   F   F
  5.8265849777344370  0.9710283970615677  0.5000000000000000   F   F   F
  4.8418025211302700 -0.1002793321692502  5.5425303185477564   T   T   T
  4.6791636588562726  6.9593218024039913  8.6901752110445116   T   T   T
 10.8154551454852452  2.8803255343030250  3.8038507225754685   F   F   F
  1.9014692393803350  1.7331918344467552  8.5097007067947725   T   T   T
  6.2459492387091418  7.5994511150453361  8.4652735912724388   T   T   T
  5.7509207254939829  6.1776312668557409  7.6581785024859466   T   T   T
  0.0529160815234758  6.8506411350144312  7.2149737809987338   T   T   T
  0.4032904350146167 -0.4220504581596300  6.5250195888243807   T   T   T
  2.9806148999802629  1.4971565642619276  7.2651746952220453   T   T   T
  3.4298764194719449  2.5059908486932256  8.5169829203191050   T   T   T
  8.4374756603209065  1.2303835473281584  9.4562401398501041   T   T   T
  8.3900242986902498  2.5655801535777494  8.4497536365174799   T   T   T
  2.9132924888672185  9.3772607554743246  3.8038507225754685   F   F   F
  8.2545416486600498  5.5078809127417987  4.8623047948359401   T   T   T
  5.8265849777344370  3.3639804053511888  2.4334301740582331   F   F   F
  0.0000000000000379  3.3639804053511888  2.4334301740582331   F   F   F
  2.9132924888672185  5.0459706080267921  1.8692122630551729   F   F   F
  0.0676136805691908  9.4794406760999035  4.8887771514397578   T   T   T
  0.0000000000000009  0.0000000000000000  1.8692122630551729   F   F   F
  3.4911027629954652  5.9185819759206684  5.8231367984953772   T   T   T
  7.9021626566180254  7.9262961423298357  3.8038507225754685   F   F   F
 -0.4588229287468364  5.8098388685004432  8.4158326983635785   T   T   T
  6.0380612446006650  6.1339979195124146  9.2876166001111713   T   T   T
  0.8409352596514178  9.6064270175228081  0.5000000000000000   F   F   F
  6.6675202373858173  9.6064270175228081  0.5000000000000000   F   F   F
  2.9132924888672185  6.0169990050883788  0.5000000000000000   F   F   F
  0.3991221369778802  0.9275377225263545  5.5452942254534632   T   T   T
  3.7510072988508103  7.9262961423298357  3.8038507225754685   F   F   F
 10.5976256806138203  0.1390047139367599  5.8882907962716713   T   T   T
  9.8847112787144820  1.8333683225204220  8.7767936297916993   T   T   T
 10.8122346958174198  9.6064270175228099  0.5000000000000000   F   F   F
  2.0723572292158399  4.5604564094960001  0.5000000000000000   F   F   F
  7.8989422069502391  4.5604564094960001  0.5000000000000000   F   F   F
  0.9456938629914041  6.7790049906101180  8.5972804311345197   T   T   T
  8.2805475157153747  4.1121434725421508  5.7907557697732139   T   T   T
  2.0755776788836262  7.9262961423298357  3.8038507225754685   F   F   F
  3.5200402563707045  4.2448559475554335  5.5416402753042293   T   T   T
  2.3075905384813793  4.8968486829690008  6.4781446442569628   T   T   T
  8.5493487851015182  5.6158160029640429  6.5213654073706433   T   T   T
  6.0039057038144561  0.5853963244012514  6.5311490063148145   T   T   T
  4.9856497180830210  9.6064270175228099  0.5000000000000000   F   F   F
  2.3304494117088526  5.2318914231873848  4.8263749886920406   T   T   T
  9.7217435268063017  4.9624503335434484  5.5238446577239850   T   T   T
  8.7656825586479066  1.0390036019486999  7.8173086275350281   T   T   T
  6.2937571842537761  0.4668201060940657  4.8703942573679955   T   T   T
  8.7398774666016177  9.3772607554743246  3.8038507225754685   F   F   F
  0.0000000000000379  4.3312901474475138  3.8038507225754685   F   F   F
  5.8265849777344370  4.3312901474475138  3.8038507225754685   F   F   F
  2.9154621359685371  5.0729800006661918  5.6572234592939985   T   T   T
 -0.0195053548697629  6.7347031012543184  8.2364632480457018   T   T   T
  0.0000000000000009  0.0000000000000000  0.8425449303043500   F   F   F
  5.8265849777344370  3.3639804053511888  3.4597557168440631   F   F   F
  5.6735622733932995  6.7309696898395757  8.5400553142325162   T   T   T
  2.9132924888672185  8.4099510133779987  3.4597557168440631   F   F   F
  8.8772975956847997  1.6679502601136389  8.6369138000110137   T   T   T
  8.7031343922977857  5.0494165607485533  5.6651164962831571   T   T   T
 -0.0492766194951419  0.0084436597687376  5.7005063931713282   T   T   T
  8.7398774666016177  8.4099510133779987  3.4597557168440631   F   F   F
  5.8265849777344005  0.0000000000000000  0.8425449303043500   F   F   F
  2.9054112141906470  1.6456311097447480  8.2799803236643701   T   T   T
  2.9132924888672185  5.0459706080267921  0.8425449303043500   F   F   F
  8.7398774666016177  5.0459706080267921  0.8425449303043500   F   F   F
  5.8584764817519783  0.0078462122012815  5.6803475348907693   T   T   T
  0.0000000000000379  3.3639804053511888  3.4597557168440631   F   F   F
  7.0472305734970480  6.0232207474037214  3.3003459413423974   F   F   F
  1.6935230144008373  2.3862244371080581  1.3160654148748374   F   F   F
  8.7398774666016177  3.0914703292729544  3.3003459413423974   F   F   F
  2.9132924888672180  3.0914703292729544  3.3003459413423974   F   F   F
  0.0000000000000366  8.1374409372997452  3.3003459413423974   F   F   F
  7.5061784695429319  7.9067325681556211  6.0224505186818815   T   T   T
  9.9605230623642314  0.9772501393769296  3.3003459413423974   F   F   F
  3.0300968566259674  3.0069858818722821 14.8390729664534931   T   T   T
  0.0000000000000379  5.3194923418374893  1.3160654148748374   F   F   F
  5.6222707497712507  1.2642405430560739 13.0444528093103607   T   T   T
 10.5861484103102459  4.1977639992424205  8.1943776344629100   T   T   T
  4.1339380846298308  0.9772501393769296  3.3003459413423974   F   F   F
  4.1055534302631989  7.5878736034648320  6.2254278971190606   T   T   T
  9.9227467092931754  7.8214651326798323  6.1631038462638612   T   T   T
  1.0680815429142343  2.5544511653631767  6.0417168883862429   T   T   T
  1.2197694744664185  7.4321950451348506  1.3160654148748374   F   F   F
  8.7398774666016177  0.2735217338106973  1.3160654148748374   F   F   F
  4.1330619633336001  2.3862244371080585  1.3160654148748374   F   F   F
  4.0278814961749996  9.1267802854192563  8.1296159728050821   T   T   T
  7.0464712835893035  3.3503522787150963 12.7109467463524588   T   T   T
  1.5833743330594880  9.2161551910964938  7.9078946219783539   T   T   T
  4.7235656993787112  3.7898561837872800  8.4256366056845895   T   T   T
  4.6059393819718260  6.0232207474037214  3.3003459413423974   F   F   F
  7.5192318708390076  0.9772501393769297  3.3003459413423974   F   F   F
 10.3261216630270720  2.6180183792044858  6.3512317635898574   T   T   T
  9.8284044939600275  8.7961664620728772  8.4086279110867785   T   T   T
  7.5201079921352374  2.3862244371080581  1.3160654148748374   F   F   F
  5.8265849777344370  5.3194923418374893  1.3160654148748374   F   F   F
  4.3095312401066703  1.3785820806900693 10.8576634038266420   T   T   T
  4.3251175228434011  3.4156865095149995 12.6924114996910973   T   T   T
  7.1040795408183763  1.3092702954614013 10.9718418190257498   T   T   T
  7.4056959014228063  8.8672359962149141  8.2330625348659723   T   T   T
  8.5764892541590392  6.7549037734839033  7.8758226320938451   T   T   T
  5.8229946380512381  4.9056444689852077  6.5331399375131856   T   T   T
  4.6024468845659037  2.8550461775201548  6.1569876853394998   T   T   T
  8.7845990588580456  9.9310054365042344  6.5234752804009863   T   T   T
  1.3447787389859613  4.1561119472000287  7.8180120898323517   T   T   T
  7.1366656618508202  3.8210712326634861  8.2860787259375375   T   T   T
  3.0266426198313510  9.7620651969375487  6.0175745543248329   T   T   T
  1.2206455957626490  6.0232207474037214  3.3003459413423974   F   F   F
  2.9132924888672185  0.2735217338106973  1.3160654148748374   F   F   F
  5.9208956701898039  1.7427237195908716  7.8684797036032652   T   T   T
  9.9596469410679997  2.3862244371080585  1.3160654148748374   F   F   F
  7.0463544522008181  7.4321950451348506  1.3160654148748374   F   F   F
 10.4325243597062247  6.0232207474037214  3.3003459413423974   F   F   F
  1.6926468931046077  0.9772501393769297  3.3003459413423974   F   F   F
  2.7706491830754341  7.0759169946770069  8.1996426916444527   T   T   T
 -0.1415546742711182  4.6953157583927103  5.9888329784387588   T   T   T
  4.6068155032680558  7.4321950451348497  1.3160654148748374   F   F   F
  5.8265849777344361  8.1374409372997452  3.3003459413423974   F   F   F
  0.1108068546928739  2.0812266758971663  8.2519075893692513   T   T   T
 10.4334004810024528  7.4321950451348497  1.3160654148748374   F   F   F
  1.7062484502444357  7.6889932892641770  6.0694806339241190   T   T   T
  7.0355790184412674  2.8632081676897854  6.0463815329624522   T   T   T
  8.6825506153160870  8.3346428890841064  7.2239663578681643   T   T   T
  2.8705247601419366  8.4165124672458944  7.1065639236715459   T   T   T
  5.8724816066520171  3.3285238376727033  7.2324486745745915   T   T   T
 -0.0156052295978512  3.3791875129746480  7.1150130940126095   T   T   T
  0.0000000000000379  6.7279608107023954  2.3016856341631255   F   F   F
  8.7398774666016177  1.6819902026756042  2.3016856341631255   F   F   F
  5.8265849777344370  6.7279608107023954  2.3016856341631255   F   F   F
  2.9132924888672185  1.6819902026756042  2.3016856341631255   F   F   F
  5.7064510909358761  2.4939842707792277 11.6385972573786081   T   T   T
