F  H  N  Si
 1.0000000000000000
    11.6535095964131994    0.0000000000000000    0.0000000000000000
     0.0000000000000000   10.0922353537395004    0.0000000000000000
     0.0000000000000000    0.0000000000000000   30.0000000000000000
 F   H   N   Si 
  75  91  16   8
Selective dynamics
Cartesian
  8.7401321973098778  3.0917580036970467  3.3010724808649616   F   F   F
  0.0002081698243949  1.9537624616230331  7.9060479381278990   T   T   T
  5.8269625793053814  1.9537622453559484  7.9060476640741566   T   T   T
 10.4346840236096270  7.4318461750463234  1.3166483637921624   F   F   F
  4.6079292254030264  7.4318461750463234  1.3166483637921624   F   F   F
  7.5213066245063480  2.3857284981765683  1.3166483637921624   F   F   F
  1.6945518262997479  2.3857284981765683  1.3166483637921624   F   F   F
  8.7403401193294368  6.9998803457426177  7.9060480354357647   T   T   T
  7.0476070722104200  6.0232975134561082  3.3010724808649616   F   F   F
  9.9609844713137434  0.9771798365863533  3.3010724808649616   F   F   F
  4.1342296731071428  0.9771798365863533  3.3010724808649616   F   F   F
  4.1333911840798443  7.7071883457370198  5.9183368773564293   T   T   T
  9.9601457372746296  7.7071885838345455  5.9183368868992678   T   T   T
  1.2200137948209397  2.6610710763461380  5.9183369301961966   T   T   T
  7.0467687226688867  2.6610707841647394  5.9183368549044113   T   T   T
  1.2208522740038208  6.0232975134561082  3.3010724808649616   F   F   F
  2.9135855205545624  6.9998801016948606  7.9060480949366010   T   T   T
 10.4346800660533514  2.6590193141063350  5.9183369912950967   T   T   T
  4.6079253811446437  2.6590193681269150  5.9183364722454197   T   T   T
  8.7389478314163611  9.8182632064056268  5.9183369503326562   T   T   T
  2.9121933345736046  9.8182629625690385  5.9183369761112949   T   T   T
  7.0480202876574882  4.0694166412289210  7.9060477440001602   T   T   T
  1.2212655767749392  4.0694167744025682  7.9060477817234123   T   T   T
  9.9613974593423436  9.1155344678932995  7.9060478399168170   T   T   T
  4.1346430135120000  9.1155343591188718  7.9060476356906131   T   T   T
  7.0455803710100859  7.4318461750463234  1.3166483637921624   F   F   F
  1.2188255728034860  7.4318461750463234  1.3166483637921624   F   F   F
  9.9589577701134075  2.3857284981765692  1.3166483637921624   F   F   F
  4.1322029719068079  2.3857284981765692  1.3166483637921624   F   F   F
  5.8267547982065562  8.1378756805668004  3.3010724808649616   F   F   F
 -0.0000000000000436  8.1378756805668004  3.3010724808649616   F   F   F
  2.9133773991032776  3.0917580036970467  3.3010724808649616   F   F   F
  1.6945480308605883  7.7051369465133641  5.9183368054580408   T   T   T
  7.5213026669446998  7.7051372127836704  5.9183368921010286   T   T   T
  1.6919037378663029  9.1151739560236464  7.9060476253124676   T   T   T
  7.5186583518142394  9.1151743086014392  7.9060476696987863   T   T   T
  4.6052810093949921  4.0690562695319201  7.9060475033467732   T   T   T
 10.4320358013972196  4.0690562547317422  7.9060480459883653   T   T   T
  4.8300070000000002  8.9431840000000005 11.6047849999999997   T   T   T
  5.9836419999999997  7.4410679999999996 10.3733269999999997   T   T   T
  8.9258389999999999  9.1133369999999996 10.3900970000000008   T   T   T
  1.2671349999999999  3.8917240000000000 11.6128219999999995   T   T   T
  2.5243460000000000  0.9778280000000000 10.3737100000000009   T   T   T
  6.8509729999999998  8.7473460000000003 11.6142719999999997   T   T   T
 10.7135569999999998  8.3651909999999994 11.6054940000000002   T   T   T
  2.4482830000000000  4.9370419999999999 10.3838790000000003   T   T   T
  6.3626240000000003  2.9306860000000001 11.1749899999999993   T   T   T
  9.1232489999999995  7.1529590000000001 11.6060169999999996   T   T   T
  0.9992940000000000  8.0581739999999993 10.5348210000000009   T   T   T
  5.1546440000000002  5.9841369999999996 11.4614840000000004   T   T   T
  6.8048729999999997  1.0333920000000001 10.6921359999999996   T   T   T
  4.7581600000000002  4.0323890000000002 11.6324369999999995   T   T   T
 10.6998990000000003  5.9134359999999999 11.5966380000000004   T   T   T
  3.6987709999999998  2.9541879999999998 10.3257879999999993   T   T   T
 -0.0011847303328574  4.7721455395043302  5.9183374060589733   T   T   T
  9.1664809999999992  3.2272580000000000 11.6115650000000006   T   T   T
 10.7066099999999995  1.6134489999999999 10.7421319999999998   T   T   T
  1.6925251250994147  0.9771798365863532  3.3010724808649616   F   F   F
  7.5192799233060139  0.9771798365863532  3.3010724808649616   F   F   F
  4.6059025242026914  6.0232975134561082  3.3010724808649616   F   F   F
 10.4326573224092911  6.0232975134561082  3.3010724808649616   F   F   F
  2.9133773991032781  0.2746606805166148  1.3166483637921624   F   F   F
  8.7401321973098778  0.2746606805166148  1.3166483637921624   F   F   F
 -0.0000000000000436  5.3207783573863692  1.3166483637921624   F   F   F
  5.8267547982065562  5.3207783573863692  1.3166483637921624   F   F   F
  2.6962670000000002  9.1071220000000004 10.6751640000000005   T   T   T
  4.7374679999999998  1.8619460000000001 11.6367919999999998   T   T   T
  3.6855609999999999  7.3310209999999998 11.3032959999999996   T   T   T
  0.9715090000000000  0.9898200000000000 11.6305730000000001   T   T   T
  6.8119180000000004  4.8721220000000001 11.3393920000000001   T   T   T
  1.6529270000000000  6.5007510000000002 11.6058380000000003   T   T   T
  9.0216010000000004  0.9680240000000000 11.6035990000000009   T   T   T
 10.2335220000000007  4.3915940000000004 10.3857219999999995   T   T   T
  5.8255705118919989  4.7721453462249261  5.9183368756902777   T   T   T
  8.7797239999999999  5.1860600000000003 11.5057899999999993   T   T   T
  0.8401031720320707  0.4853004740782697  5.2204219091168280   T   T   T
  3.8529939999999998  7.5004720000000002 10.3948499999999999   T   T   T
  6.6680111904978983  9.6065357491926271  0.5000000000000000   F   F   F
  5.0332499999999998  0.9708150000000000 11.6162960000000002   T   T   T
  3.7546337913945766  4.5604180723228787  0.5000000000000000   F   F   F
  2.8375300000000001  9.1162410000000005 11.6035939999999993   T   T   T
  3.4634580000000001  0.9704250000000000 10.3796370000000007   T   T   T
 10.8040558440502821  7.2247130148629797  8.3908769476879730   T   T   T
  6.9635360000000004  9.1367530000000006 10.7670929999999991   T   T   T
  4.9773009998283548  7.2247130074541364  8.3908767128930588   T   T   T
 10.7284220000000001  8.2976700000000001 10.6688829999999992   T   T   T
  7.8906786396921653  2.1785948989366024  8.3908768649343486   T   T   T
  3.0113859999999999  5.6886640000000002 10.3834630000000008   T   T   T
  2.9133773991032781  9.3788974631443622  3.8043095294545042   F   F   F
  9.5813885896011755  4.5604180723228787  0.5000000000000000   F   F   F
  2.9133773991032781  8.4101961281162527  2.4321633756321481   F   F   F
  8.7401321973098778  8.4101961281162527  2.4321633756321481   F   F   F
 -0.0000000000000436  3.3640784512465056  2.4321633756321481   F   F   F
  5.8267547982065562  3.3640784512465056  2.4321633756321481   F   F   F
  7.8997979214591671  5.5310181007560475  5.2204220763887363   T   T   T
  0.8412563922912988  9.6065357491926271  0.5000000000000000   F   F   F
  8.7401321973098778  9.3788974631443622  3.8043095294545042   F   F   F
  1.2281080000000000  1.8923770000000000 11.5909469999999999   T   T   T
  6.7403620000000002  4.7388599999999999 10.4124920000000003   T   T   T
  8.7401319231671035  1.6820390857632066  7.0551117861017119   T   T   T
  8.8823080000000001  9.1180740000000000 11.3282349999999994   T   T   T
  0.0000001198070891  6.7281568141023067  7.0551118729028000   T   T   T
  6.6697220000000002  6.8000179999999997 10.3925549999999998   T   T   T
  5.8267547785316802  6.7281564719096290  7.0551119205030366   T   T   T
  4.9660200000000003  9.1323170000000005 10.6949769999999997   T   T   T
  2.0639238105627244  2.1785952447092112  8.3908769008618442   T   T   T
  2.7622670000000000  2.9622839999999999 10.3959010000000003   T   T   T
  6.6668577815975256  0.4853005236014463  5.2204217268716029   T   T   T
  8.3121919999999996  2.8371800000000000 11.6044719999999995   T   T   T
  3.7534803763357307  5.5314182425225553  5.2204218478528395   T   T   T
 10.7094980000000000  3.5819969999999999 10.3901640000000004   T   T   T
  9.5802350228079920  5.5314183119227884  5.2204216923614863   T   T   T
 10.7377649999999996  1.9913400000000001 11.6013459999999995   T   T   T
  2.9080742302066898  0.6981127745108242  8.3908768997136516   T   T   T
  8.8046050000000005  0.9973370000000000 10.6903220000000001   T   T   T
  8.7348289846702443  0.6981123983580120  8.3908767931537316   T   T   T
  0.9958250000000000  5.8617920000000003 11.4009750000000007   T   T   T
 -0.0053034822140215  5.7442304646174591  8.3908770592895241   T   T   T
  5.8214516063067236  5.7442304776705582  8.3908770560358175   T   T   T
  0.9359260000000000  3.6864300000000001 10.7583179999999992   T   T   T
 -0.0000000000000436  4.3327797862746138  3.8043095294545042   F   F   F
  4.9854984059152585  9.6065357491926289  0.5000000000000000   F   F   F
  8.5807210000000005  5.4884909999999998 10.6392129999999998   T   T   T
  3.7522973639175210  7.9258454606021980  3.8043095294545042   F   F   F
  9.5790521621241211  7.9258454606021980  3.8043095294545042   F   F   F
  0.8389199648141999  2.8797277837324504  3.8043095294545042   F   F   F
  6.6656747630207995  2.8797277837324504  3.8043095294545042   F   F   F
  5.8635789999999997  2.9339089999999999 10.3793989999999994   T   T   T
  6.6815117445019636  7.2155274051460498  8.3908766931086465   T   T   T
  8.1904810000000001  7.2623430000000004 11.6056650000000001   T   T   T
  0.8547571797276986  7.2155274811530310  8.3908768659854260   T   T   T
  0.9888209999999999  8.3776519999999994 11.4179089999999999   T   T   T
  9.5948893343411381  2.1694095885066029  8.3908767820766723   T   T   T
  5.0018989999999999  5.7122799999999998 10.5756040000000002   T   T   T
  3.7681347564098782  2.1694096066121862  8.3908767417594294   T   T   T
  7.0274640000000002  1.0937980000000000 11.6025349999999996   T   T   T
 10.8145896315989134  2.8797277837324491  3.8043095294545042   F   F   F
  3.9085510000000001  4.4320839999999997 11.6531599999999997   T   T   T
  4.9878348333923128  2.8797277837324491  3.8043095294545042   F   F   F
 10.7112940000000005  6.2998989999999999 10.7407540000000008   T   T   T
  7.9012122324956344  7.9258454606021980  3.8043095294545042   F   F   F
  5.8269856455559328  9.1220345836406054  5.2204221045751806   T   T   T
  5.8267547982065562  4.3327797862746138  3.8043095294545042   F   F   F
  0.0002308675007448  9.1220347820547243  5.2204215723784095   T   T   T
  2.9133773991032781  6.0175168859635022  0.5000000000000000   F   F   F
 10.8122532041218591  9.6065357491926289  0.5000000000000000   F   F   F
  2.0721210068119369  4.5604180723228804  0.5000000000000000   F   F   F
  7.8988758050185366  4.5604180723228804  0.5000000000000000   F   F   F
  0.0000000000000009  0.0000000000000000  1.8667589503465760   F   F   F
  5.8267547982066006  0.0000000000000000  1.8667589503465760   F   F   F
  2.9133773991032790  5.0461176768697538  1.8667589503465760   F   F   F
  8.7401321973098796  5.0461176768697538  1.8667589503465760   F   F   F
  0.0000003167184836 -0.0000004055233019  6.5934033405973675   T   T   T
  5.8267548901571686  0.0000003865980886  6.5934035860506883   T   T   T
  2.9133772362225128  5.0461176533220282  6.5934029912391603   T   T   T
  8.7401321444380979  5.0461176444692990  6.5934033341026348   T   T   T
  8.7403631332477243  4.0759169889148090  5.2204218642559432   T   T   T
  2.0744574342890347  7.9258454606021980  3.8043095294545042   F   F   F
  2.0730432537386161  5.5310182279262969  5.2204216831694410   T   T   T
 10.8131752329344408  0.4849005597433395  5.2204221295472903   T   T   T
  4.9864206582618840  0.4849003005302229  5.2204221520064689   T   T   T
  5.8267547982065562  0.9713992090937540  0.5000000000000000   F   F   F
 -0.0000000000000436  0.9713992090937540  0.5000000000000000   F   F   F
  8.7401321973098778  6.0175168859635022  0.5000000000000000   F   F   F
  2.9136083247134876  4.0759169765081431  5.2204217152063626   T   T   T
  2.9133774123487273  1.6820390242301473  7.0551120553115849   T   T   T
  0.0000001725732239  6.7281567089253986  8.0841741649436365   T   T   T
  5.8267547982066006  0.0000000000000000  0.8416304243563442   F   F   F
  8.7401316576957413  1.6820392094888514  8.0841743112808562   T   T   T
  5.8267551965121820  6.7281567457068245  8.0841743217812585   T   T   T
  2.9133775744403159  1.6820388720922383  8.0841743276055045   T   T   T
  5.8267547982065562  3.3640784512465056  3.4593945362622507   F   F   F
 -0.0000000000000436  3.3640784512465056  3.4593945362622507   F   F   F
  0.0000000182374697 -0.0000005423243933  5.5634944740157426   T   T   T
  0.0000000000000009  0.0000000000000000  0.8416304243563442   F   F   F
  2.9133773991032781  8.4101961281162527  3.4593945362622507   F   F   F
  8.7401321973098796  5.0461176768697538  0.8416304243563442   F   F   F
  2.9133773991032790  5.0461176768697538  0.8416304243563442   F   F   F
  5.8267545340141895  0.0000000680897011  5.5634939833401029   T   T   T
  8.7401321973098778  8.4101961281162527  3.4593945362622507   F   F   F
  8.7401318964435717  5.0461179211241607  5.5634938953977420   T   T   T
  2.9133773312271174  5.0461176923655033  5.5634944517946332   T   T   T
  8.7401321973098778  1.6820392256232506  2.2987940834959804   F   F   F
  5.8267548003794545  3.3640784061052442  6.9263598301493188   T   T   T
  0.0000000673131043  3.3640785041950734  6.9263602092570595   T   T   T
  8.7401319824282275  8.4101965349263317  6.9263600465261534   T   T   T
  2.9133775756599705  8.4101962188154502  6.9263599518520653   T   T   T
 -0.0000000000000436  6.7281569024930041  2.2987940834959804   F   F   F
  2.9133773991032781  1.6820392256232506  2.2987940834959804   F   F   F
  5.8267547982065562  6.7281569024930041  2.2987940834959804   F   F   F
