Si2 H16 N4 F12                          
   1.00000000000000     
     2.9133418786363108   -5.0460561536162505   -0.0000000000000000
     2.9133418786363108    5.0460561536162505   -0.0000000000000000
     0.0000000000000000    0.0000000000000000    9.2900062093924838
   Si   H    N    F 
     2    16     4    12
Direct
  0.6666666666666643  0.3333333333333357  0.7444645491982332
  0.3333333333333357  0.6666666666666643  0.2444645491982333
  0.9037166970667861  0.8074333941335652  0.0505633482119031
  0.5707296565946617  0.4292703434053385  0.4062772855476762
 -0.0000000000000000 -0.0000000000000000  0.6979070532899044
 -0.0000000000000000 -0.0000000000000000  0.1979070532899043
  0.1925666058664351  0.0962833029332140  0.0505633482119031
  0.6666666666666643  0.3333333333333357  0.2587123097742148
  0.8585406868106699  0.4292703434053385  0.4062772855476762
  0.0962833029332140  0.9037166970667861  0.5505633482119032
  0.5707296565946617  0.1414593131893302  0.4062772855476762
  0.4292703434053385  0.8585406868106699  0.9062772855476763
  0.9037166970667861  0.0962833029332140  0.0505633482119031
  0.8074333941335652  0.9037166970667861  0.5505633482119032
  0.1414593131893302  0.5707296565946617  0.9062772855476763
  0.3333333333333357  0.6666666666666643  0.7587123097742147
  0.4292703434053385  0.5707296565946617  0.9062772855476763
  0.0962833029332140  0.1925666058664351  0.5505633482119032
 -0.0000000000000000 -0.0000000000000000  0.5872954682000652
 -0.0000000000000000 -0.0000000000000000  0.0872954682000650
  0.6666666666666643  0.3333333333333357  0.3691835173616936
  0.3333333333333357  0.6666666666666643  0.8691835173616933
  0.8062073958390480  0.6124147916780902  0.8520366105842108
  0.5273171433716867  0.4726828566283134  0.6385634563815082
  0.9453657132566197  0.4726828566283134  0.6385634563815082
  0.3875852083219099  0.1937926041609514  0.8520366105842108
  0.5273171433716867  0.0546342867433805  0.6385634563815082
  0.8062073958390480  0.1937926041609514  0.8520366105842108
  0.1937926041609514  0.8062073958390480  0.3520366105842112
  0.4726828566283134  0.9453657132566197  0.1385634563815079
  0.6124147916780902  0.8062073958390480  0.3520366105842112
  0.0546342867433805  0.5273171433716867  0.1385634563815079
  0.4726828566283134  0.5273171433716867  0.1385634563815079
  0.1937926041609514  0.3875852083219099  0.3520366105842112
 
  0.00000000E+00  0.00000000E+00  0.00000000E+00
  0.00000000E+00  0.00000000E+00  0.00000000E+00
  0.00000000E+00  0.00000000E+00  0.00000000E+00
  0.00000000E+00  0.00000000E+00  0.00000000E+00
  0.00000000E+00  0.00000000E+00  0.00000000E+00
  0.00000000E+00  0.00000000E+00  0.00000000E+00
  0.00000000E+00  0.00000000E+00  0.00000000E+00
  0.00000000E+00  0.00000000E+00  0.00000000E+00
  0.00000000E+00  0.00000000E+00  0.00000000E+00
  0.00000000E+00  0.00000000E+00  0.00000000E+00
  0.00000000E+00  0.00000000E+00  0.00000000E+00
  0.00000000E+00  0.00000000E+00  0.00000000E+00
  0.00000000E+00  0.00000000E+00  0.00000000E+00
  0.00000000E+00  0.00000000E+00  0.00000000E+00
  0.00000000E+00  0.00000000E+00  0.00000000E+00
  0.00000000E+00  0.00000000E+00  0.00000000E+00
  0.00000000E+00  0.00000000E+00  0.00000000E+00
  0.00000000E+00  0.00000000E+00  0.00000000E+00
  0.00000000E+00  0.00000000E+00  0.00000000E+00
  0.00000000E+00  0.00000000E+00  0.00000000E+00
  0.00000000E+00  0.00000000E+00  0.00000000E+00
  0.00000000E+00  0.00000000E+00  0.00000000E+00
  0.00000000E+00  0.00000000E+00  0.00000000E+00
  0.00000000E+00  0.00000000E+00  0.00000000E+00
  0.00000000E+00  0.00000000E+00  0.00000000E+00
  0.00000000E+00  0.00000000E+00  0.00000000E+00
  0.00000000E+00  0.00000000E+00  0.00000000E+00
  0.00000000E+00  0.00000000E+00  0.00000000E+00
  0.00000000E+00  0.00000000E+00  0.00000000E+00
  0.00000000E+00  0.00000000E+00  0.00000000E+00
  0.00000000E+00  0.00000000E+00  0.00000000E+00
  0.00000000E+00  0.00000000E+00  0.00000000E+00
  0.00000000E+00  0.00000000E+00  0.00000000E+00
  0.00000000E+00  0.00000000E+00  0.00000000E+00
