H  N  F  Si I 
 1.0000000000000000
    11.6531699554687993    0.0000000000000000    0.0000000000000000
     0.0000000000000000   10.0919412160536002    0.0000000000000000
     0.0000000000000000    0.0000000000000000   30.0000000000000000
 H   N   F   Si  I  
  65  16  54   8   1
Selective dynamics
Cartesian
  3.7542277485186357  4.5604564094959974  0.5000000000000000   F   F   F
  8.7398774666016177  6.0169990050883788  0.5000000000000000   F   F   F
  0.8377148099836284  2.8803255343030250  3.8038507225754685   F   F   F
  8.7398774666016177  5.0459706080267921  1.8692122630551729   F   F   F
  0.0000000000000379  0.9710283970615677  0.5000000000000000   F   F   F
  5.8265849777344005  0.0000000000000000  1.8692122630551729   F   F   F
  5.0845762820618416 10.6592882223901544 13.6434870803702708   T   T   T
  8.7398774666016177  8.4099510133779987  2.4334301740582331   F   F   F
  4.9888701677508447  2.8803255343030250  3.8038507225754685   F   F   F
 11.0193681326282960  7.5078326631462993  8.5993066061991605   T   T   T
  9.5808127262530363  4.5604564094959974  0.5000000000000000   F   F   F
  2.9132924888672185  8.4099510133779987  2.4334301740582331   F   F   F
  6.2799723031341088  9.1433357894081215  5.8095855750376124   T   T   T
  6.6642997877180274  2.8803255343030250  3.8038507225754685   F   F   F
  3.2627318004686678  1.0357884508600486  9.1066198359840484   T   T   T
  9.5775922765852108  7.9262961423298357  3.8038507225754685   F   F   F
  5.8265849777344370  0.9710283970615677  0.5000000000000000   F   F   F
  4.8262339013824294 -0.1072490628782567  5.5500381883792809   T   T   T
  4.6479835595271686  7.0012456457787096  8.7338432008990363   T   T   T
 10.8154551454852452  2.8803255343030250  3.8038507225754685   F   F   F
  1.8225002357124918  1.7287630395399538  8.5064887320724907   T   T   T
  6.2464486186671513  7.5524648324551080  8.5745068590834226   T   T   T
  5.7526760486062285  6.1014997351180051  7.8360887585180796   T   T   T
 -0.0124788140771419  6.8492119586490503  7.2200058356651580   T   T   T
  0.3847115175675120 -0.4434630363036454  6.5253868776453148   T   T   T
  2.9995644251721294  1.1485121847074062  7.4678396604072095   T   T   T
  3.3146899214359253  2.5428618023937499  8.3625547924119186   T   T   T
  8.4520958514836568  1.2015971038544886  9.5245858037006030   T   T   T
  8.4254155651893470  2.5306845098788289  8.5007101031464494   T   T   T
  2.9132924888672185  9.3772607554743246  3.8038507225754685   F   F   F
  8.2340438200744632  5.4970639691348673  4.8702686763559608   T   T   T
  5.8265849777344370  3.3639804053511888  2.4334301740582331   F   F   F
  0.0000000000000379  3.3639804053511888  2.4334301740582331   F   F   F
  2.9132924888672185  5.0459706080267921  1.8692122630551729   F   F   F
  0.0559493000244221  9.4966532106443662  4.8858505205063327   T   T   T
  0.0000000000000009  0.0000000000000000  1.8692122630551729   F   F   F
  3.4869732931366277  5.9155800226814650  5.8469598719196414   T   T   T
  7.9021626566180254  7.9262961423298357  3.8038507225754685   F   F   F
 -0.4860104795837470  5.8015124806908966  8.4287428653023024   T   T   T
  5.9109424162566606  6.1627020273455768  9.4954589715746334   T   T   T
  0.8409352596514178  9.6064270175228081  0.5000000000000000   F   F   F
  6.6675202373858173  9.6064270175228081  0.5000000000000000   F   F   F
  2.9132924888672185  6.0169990050883788  0.5000000000000000   F   F   F
  0.3737402125702210  0.9323634107276617  5.5803927709329821   T   T   T
  3.7510072988508103  7.9262961423298357  3.8038507225754685   F   F   F
 10.5768257762857747  0.1231338452862026  5.9009016837224220   T   T   T
  9.9059354996752838  1.7811097459508942  8.8262717788037488   T   T   T
 10.8122346958174198  9.6064270175228099  0.5000000000000000   F   F   F
  2.0723572292158399  4.5604564094960001  0.5000000000000000   F   F   F
  7.8989422069502391  4.5604564094960001  0.5000000000000000   F   F   F
  0.9233379417389499  6.7691197230891680  8.5766214483172867   T   T   T
  8.2714387067478512  4.1044423147497904  5.8061370373098704   T   T   T
  2.0755776788836262  7.9262961423298357  3.8038507225754685   F   F   F
  3.5359278091716102  4.2347125965567392  5.5899937816662932   T   T   T
  2.2974487212119015  4.8926579078959209  6.4902960449580691   T   T   T
  8.5243939774311421  5.6134573451735790  6.5290661734421462   T   T   T
  5.9926928078511859  0.5485934828822032  6.5481094952343257   T   T   T
  4.9856497180830210  9.6064270175228099  0.5000000000000000   F   F   F
  2.3558879407204829  5.2021805588674885  4.8350879762978103   T   T   T
  9.7050293136585779  4.9631739863033948  5.5359567275816675   T   T   T
  8.7695697695906301  0.9959530596532817  7.8791875270022684   T   T   T
  6.2859109736962981  0.4508808415349479  4.8877550242346137   T   T   T
  8.7398774666016177  9.3772607554743246  3.8038507225754685   F   F   F
  0.0000000000000379  4.3312901474475138  3.8038507225754685   F   F   F
  5.8265849777344370  4.3312901474475138  3.8038507225754685   F   F   F
  2.9224849972650349  5.0609511821593101  5.6811234991451114   T   T   T
 -0.0520029447596145  6.7275361699112297  8.2424386846783477   T   T   T
  0.0000000000000009  0.0000000000000000  0.8425449303043500   F   F   F
  5.8265849777344370  3.3639804053511888  3.4597557168440631   F   F   F
  5.6366492966007797  6.7110084876396918  8.6746253438987289   T   T   T
  2.9132924888672185  8.4099510133779987  3.4597557168440631   F   F   F
  8.8947106976698329  1.6270275274401400  8.6954294229137208   T   T   T
  8.6853193077236792  5.0444687797963859  5.6748451686235875   T   T   T
 -0.0686592366485451  0.0051745825056843  5.7116231458374980   T   T   T
  8.7398774666016177  8.4099510133779987  3.4597557168440631   F   F   F
  5.8265849777344005  0.0000000000000000  0.8425449303043500   F   F   F
  2.8442358531826497  1.6201851226046278  8.3702828594569514   T   T   T
  2.9132924888672185  5.0459706080267921  0.8425449303043500   F   F   F
  8.7398774666016177  5.0459706080267921  0.8425449303043500   F   F   F
  5.8437999244756726 -0.0145513954785313  5.6898962182139039   T   T   T
  0.0000000000000379  3.3639804053511888  3.4597557168440631   F   F   F
  7.0472305734970480  6.0232207474037214  3.3003459413423974   F   F   F
  1.6935230144008373  2.3862244371080581  1.3160654148748374   F   F   F
  8.7398774666016177  3.0914703292729544  3.3003459413423974   F   F   F
  2.9132924888672180  3.0914703292729544  3.3003459413423974   F   F   F
  0.0000000000000366  8.1374409372997452  3.3003459413423974   F   F   F
  7.4971032885906945  7.8964467501781854  6.0140261559551504   T   T   T
  9.9605230623642314  0.9772501393769296  3.3003459413423974   F   F   F
  4.8053387724507592  9.9949711358540529 14.2648496175809001   T   T   T
  0.0000000000000379  5.3194923418374893  1.3160654148748374   F   F   F
  5.6639634163971282  1.8022735207265770 12.8630226551622471   T   T   T
 10.5628193096263256  4.1907534672044058  8.2133786114037335   T   T   T
  4.1339380846298308  0.9772501393769296  3.3003459413423974   F   F   F
  4.0829529081587372  7.5764446235874718  6.2116597158174356   T   T   T
  9.9079746690234920  7.8125107255029302  6.1860233160309139   T   T   T
  1.0301891456954981  2.5451958631472653  6.0543979623809987   T   T   T
  1.2197694744664185  7.4321950451348506  1.3160654148748374   F   F   F
  8.7398774666016177  0.2735217338106973  1.3160654148748374   F   F   F
  4.1330619633336001  2.3862244371080585  1.3160654148748374   F   F   F
  4.0172529056266839  9.0674859626657618  8.1439408728515854   T   T   T
  7.0643813946312983  3.6266536583913318 11.7292702148869168   T   T   T
  1.5688767959805521  9.1883631790699702  7.9254840090788381   T   T   T
  4.6605767687288022  3.7685811309066195  8.3882971843985565   T   T   T
  4.6059393819718260  6.0232207474037214  3.3003459413423974   F   F   F
  7.5192318708390076  0.9772501393769297  3.3003459413423974   F   F   F
 10.2907927808652389  2.6086594193443102  6.3788238602792209   T   T   T
  9.7854568660003487  8.7701442865001926  8.4370074504469041   T   T   T
  7.5201079921352374  2.3862244371080581  1.3160654148748374   F   F   F
  5.8265849777344370  5.3194923418374893  1.3160654148748374   F   F   F
  4.3466728842035156  1.0454292735462027 10.8048781209828775   T   T   T
  4.4012340286312845  3.6424729798989643 11.5831343511085336   T   T   T
  7.1968477038151741  1.0499816126749353 10.9395526516848722   T   T   T
  7.3634373911044522  8.8391723178536203  8.2337111506824137   T   T   T
  8.5410663173662247  6.7331957952601238  7.8775235510200146   T   T   T
  5.8537407114155560  4.9060081594733118  6.5937163043180265   T   T   T
  4.6266880134091615  2.8596154556024138  6.1260671659036516   T   T   T
  8.7630553987581123  9.9196408111141352  6.5510778443943689   T   T   T
  1.3169305371714952  4.1487142035952296  7.8257533594229223   T   T   T
  7.0875749802044989  3.7645435680141999  8.3549855932156714   T   T   T
  3.0193524248877042  9.7728381099886388  6.0575295992456857   T   T   T
  1.2206455957626490  6.0232207474037214  3.3003459413423974   F   F   F
  2.9132924888672185  0.2735217338106973  1.3160654148748374   F   F   F
  5.8692001096499116  1.7205308859245632  7.8896609164191478   T   T   T
  9.9596469410679997  2.3862244371080585  1.3160654148748374   F   F   F
  7.0463544522008181  7.4321950451348506  1.3160654148748374   F   F   F
 10.4325243597062247  6.0232207474037214  3.3003459413423974   F   F   F
  1.6926468931046077  0.9772501393769297  3.3003459413423974   F   F   F
  2.7371491210022532  7.0320452262039570  8.1772294467746640   T   T   T
 -0.1744716956759441  4.6866736630332895  6.0000696835604979   T   T   T
  4.6068155032680558  7.4321950451348497  1.3160654148748374   F   F   F
  5.8265849777344361  8.1374409372997452  3.3003459413423974   F   F   F
  0.0881472627634504  2.0732324798404722  8.2697902042533258   T   T   T
 10.4334004810024528  7.4321950451348497  1.3160654148748374   F   F   F
  1.6899033159949273  7.7005415284616614  6.0567749193510823   T   T   T
  7.0495929740609036  2.8427642211501722  6.0919581613410347   T   T   T
  8.6519359034679724  8.3178075026456639  7.2356179213653915   T   T   T
  2.8548275224309165  8.3944265151391981  7.1147025577056411   T   T   T
  5.8604076888081194  3.3119397019186358  7.2413245520346496   T   T   T
 -0.0454585005904351  3.3726240988776994  7.1274399888140403   T   T   T
  0.0000000000000379  6.7279608107023954  2.3016856341631255   F   F   F
  8.7398774666016177  1.6819902026756042  2.3016856341631255   F   F   F
  5.8265849777344370  6.7279608107023954  2.3016856341631255   F   F   F
  2.9132924888672185  1.6819902026756042  2.3016856341631255   F   F   F
  5.7593734190677361  2.3991307337594288 11.0332446509560587   T   T   T
