Si H  N  F                              
   1.00000000000000     
    11.6533675145452005    0.0000000000000000    0.0000000000000000
     0.0000000000000000   10.0921123072324992    0.0000000000000000
     0.0000000000000000    0.0000000000000000   24.2900062093925015
   Si   H    N    F 
     8    64    16    48
Selective dynamics
Direct
  0.2500481019268648  0.8333698785044845  0.2866148230936361   T   T   T
  0.7500012284762576  0.8333747574720860  0.2866108602608861   T   T   T
  0.0001354809204486  0.3333691006668502  0.2866165808748704   T   T   T
  0.5001470745819461  0.3334155011459785  0.2866097800620153   T   T   T
  0.2500000000000000  0.1666666666666643  0.0947444533909518   F   F   F
  0.7500000000000000  0.1666666666666643  0.0947444533909518   F   F   F
  0.0000000000000000  0.6666666666666643  0.0947444533909518   F   F   F
  0.5000000000000000  0.6666666666666643  0.0947444533909518   F   F   F
  0.4277875228000880  0.9518583485333920  0.0205845974550058   F   F   F
  0.9277875228000880  0.9518583485333920  0.0205845974550058   F   F   F
  0.1777875228000880  0.4518583485333920  0.0205845974550058   F   F   F
  0.6777875228000880  0.4518583485333920  0.0205845974550058   F   F   F
  0.2500000000000000  0.9292703434053422  0.1566316885149917   F   F   F
  0.7500000000000000  0.9292703434053422  0.1566316885149917   F   F   F
  0.0000000000000000  0.4292703434053422  0.1566316885149917   F   F   F
  0.5000000000000000  0.4292703434053422  0.1566316885149917   F   F   F
  0.9999584844432334  0.0007128957803673  0.2740006764913900   T   T   T
  0.4999552762775252  0.0007127571660916  0.2740001223883368   T   T   T
  0.2499681503759774  0.5007240167124678  0.2739991762792471   T   T   T
  0.7499643488897618  0.5007232069515979  0.2739980536199766   T   T   T
  0.0000000000000000  0.0000000000000000  0.0769379768362057   F   F   F
  0.5000000000000000  0.0000000000000000  0.0769379768362057   F   F   F
  0.2500000000000000  0.5000000000000000  0.0769379768362057   F   F   F
  0.7500000000000000  0.5000000000000000  0.0769379768362057   F   F   F
  0.0722124771999120  0.9518583485333920  0.0205845974550058   F   F   F
  0.5722124771999120  0.9518583485333920  0.0205845974550058   F   F   F
  0.3222124771999120  0.4518583485333920  0.0205845974550058   F   F   F
  0.8222124771999120  0.4518583485333920  0.0205845974550058   F   F   F
  0.2500000000000000  0.8333333333333357  0.1001936814841713   F   F   F
  0.7500000000000000  0.8333333333333357  0.1001936814841713   F   F   F
  0.0000000000000000  0.3333333333333357  0.1001936814841713   F   F   F
  0.5000000000000000  0.3333333333333357  0.1001936814841713   F   F   F
  0.3219527575540013  0.7853648282973396  0.1566316885149917   F   F   F
  0.8219527575540013  0.7853648282973396  0.1566316885149917   F   F   F
  0.0719527575540013  0.2853648282973396  0.1566316885149917   F   F   F
  0.5719527575540013  0.2853648282973396  0.1566316885149917   F   F   F
  0.2499684633702302  0.4039007340140728  0.2179917791599024   T   T   T
  0.7499661733870653  0.4038971658000463  0.2179916907873576   T   T   T
  0.9999541682596558  0.9038940377962632  0.2179923593819595   T   T   T
  0.4999515324930996  0.9038979997549603  0.2179924795454440   T   T   T
  0.1780472424459987  0.7853648282973325  0.1566316885149917   F   F   F
  0.6780472424459987  0.7853648282973325  0.1566316885149917   F   F   F
  0.4280472424459987  0.2853648282973325  0.1566316885149917   F   F   F
  0.9280472424459987  0.2853648282973325  0.1566316885149917   F   F   F
  0.3231810011937455  0.2158764546980905  0.3473007842633891   T   T   T
  0.8231764521927474  0.2158752631805214  0.3473002323724117   T   T   T
  0.0731653089797746  0.7158979336705116  0.3472978459472529   T   T   T
  0.5731675156335569  0.7158969562658868  0.3472996356350606   T   T   T
  0.2500000000000000  0.5962833029332160  0.0205845974550058   F   F   F
  0.7500000000000000  0.5962833029332160  0.0205845974550058   F   F   F
  0.0000000000000000  0.0962833029332160  0.0205845974550058   F   F   F
  0.5000000000000000  0.0962833029332160  0.0205845974550058   F   F   F
  0.4276569895251470  0.0485708628071890  0.2178382693054033   T   T   T
  0.9276579482318823  0.0485695797854788  0.2178397940489489   T   T   T
  0.1776648638519234  0.5485615482531756  0.2178420145294808   T   T   T
  0.6776668259589158  0.5485608164105358  0.2178424887620878   T   T   T
  0.1768405083133189  0.2159652505611405  0.3472920441839022   T   T   T
  0.6768322617355196  0.2159629243887053  0.3472898379098552   T   T   T
  0.4268316510089107  0.7159611652909561  0.3472879062713190   T   T   T
  0.9268264653157203  0.7159575717818214  0.3472849000771419   T   T   T
  0.2499578635677153  0.1659262927652776  0.2926144224366496   T   T   T
  0.7499584456285859  0.1659237904299431  0.2926120250992668   T   T   T
  0.9999760003151508  0.6659259982262000  0.2926111525775568   T   T   T
  0.4999745840669476  0.6659338322540762  0.2926117429248620   T   T   T
  0.2499189072065562  0.0694400606917611  0.3477762051744762   T   T   T
  0.7499093304162017  0.0694447150670641  0.3477763874916562   T   T   T
  0.9999258673285070  0.5694408028443689  0.3477728770023063   T   T   T
  0.4999211623551361  0.5694434157540584  0.3477731626223388   T   T   T
  0.0722679389523648  0.0485898366805699  0.2178469545245747   T   T   T
  0.5722695596157408  0.0485934608833247  0.2178470795682941   T   T   T
  0.3222781232274698  0.5486025399046142  0.2178371626239155   T   T   T
  0.8222810148167667  0.5485968182609753  0.2178374591010339   T   T   T
  0.9999654387282249  0.0004075880677306  0.2316051314448373   T   T   T
  0.4999651510453589  0.0004131198094512  0.2316045045764454   T   T   T
  0.2499849990672516  0.5004158688614808  0.2316032363071017   T   T   T
  0.7499859683876338  0.5004124850709104  0.2316023154120970   T   T   T
  0.0000000000000000  0.0000000000000000  0.0346332403344078   F   F   F
  0.5000000000000000  0.0000000000000000  0.0346332403344078   F   F   F
  0.2500000000000000  0.5000000000000000  0.0346332403344078   F   F   F
  0.7500000000000000  0.5000000000000000  0.0346332403344078   F   F   F
  0.2500000000000000  0.8333333333333357  0.1424447289149455   F   F   F
  0.7500000000000000  0.8333333333333357  0.1424447289149455   F   F   F
  0.0000000000000000  0.3333333333333357  0.1424447289149455   F   F   F
  0.5000000000000000  0.3333333333333357  0.1424447289149455   F   F   F
  0.2499935204018726  0.1667954176883129  0.3350506627259691   T   T   T
  0.7499879065503166  0.1667962792729369  0.3350483255383594   T   T   T
  0.9999872905730953  0.6667954342140519  0.3350470533593182   T   T   T
  0.4999897837496547  0.6667982358383355  0.3350476506454925   T   T   T
  0.3549111691764324  0.9025562406673160  0.3273904258274314   T   T   T
  0.8548710765364760  0.9026039929164611  0.3273902389107448   T   T   T
  0.1049572625406938  0.4025216215089316  0.3274055639667282   T   T   T
  0.6049965896281648  0.4025687398399427  0.3273875138914519   T   T   T
  0.2501001814359824  0.9730277068144346  0.2457496538599315   T   T   T
  0.7500577581755365  0.9730051536442446  0.2457229962137291   T   T   T
  0.0003276712723235  0.4729833930693061  0.2456984707753165   T   T   T
  0.5003542706361301  0.4729894839587558  0.2456954823488360   T   T   T
  0.3547837448289428  0.7635901223192363  0.2455496623631603   T   T   T
  0.8547576871542759  0.7635915952180099  0.2455548139243646   T   T   T
  0.1048145778526361  0.2634767660014177  0.2455684068594408   T   T   T
  0.6048350827381626  0.2635408062596127  0.2455650189426422   T   T   T
  0.1456357599846214  0.9031547360818095  0.3275587561116211   T   T   T
  0.6455552437612369  0.9031442196525887  0.3275392608719585   T   T   T
  0.3957105903258125  0.4032914266457794  0.3275270894715163   T   T   T
  0.8957018615411414  0.4032524502694343  0.3275311966895060   T   T   T
  0.1452422155666042  0.7637937577321381  0.2456063694609938   T   T   T
  0.6452118989979567  0.7637754751636692  0.2456094681600831   T   T   T
  0.3952685032391727  0.2638708098891627  0.2455960589075374   T   T   T
  0.8952624607274799  0.2638358877825482  0.2456070717076244   T   T   T
  0.2498808738724208  0.6939841269224942  0.3271010246197363   T   T   T
  0.7498777510735835  0.6939582812127796  0.3270953717037841   T   T   T
  0.9999306705243711  0.1940101933587215  0.3271106348494541   T   T   T
  0.4999135303665696  0.1941055054047141  0.3271226993064644   T   T   T
  0.2500000000000000  0.3062073958390528  0.1358866873458524   F   F   F
  0.7500000000000000  0.3062073958390528  0.1358866873458524   F   F   F
  0.0000000000000000  0.8062073958390528  0.1358866873458524   F   F   F
  0.5000000000000000  0.8062073958390528  0.1358866873458524   F   F   F
  0.3545121424712363  0.2363414283141552  0.0542413015445575   F   F   F
  0.8545121424712363  0.2363414283141552  0.0542413015445575   F   F   F
  0.1045121424712363  0.7363414283141552  0.0542413015445575   F   F   F
  0.6045121424712363  0.7363414283141552  0.0542413015445575   F   F   F
  0.3546555468792860  0.0968963020804807  0.1358866873458524   F   F   F
  0.8546555468792860  0.0968963020804807  0.1358866873458524   F   F   F
  0.1046555468792860  0.5968963020804807  0.1358866873458524   F   F   F
  0.6046555468792860  0.5968963020804807  0.1358866873458524   F   F   F
  0.1454878575287637  0.2363414283141552  0.0542413015445575   F   F   F
  0.6454878575287637  0.2363414283141552  0.0542413015445575   F   F   F
  0.3954878575287637  0.7363414283141552  0.0542413015445575   F   F   F
  0.8954878575287637  0.7363414283141552  0.0542413015445575   F   F   F
  0.2500000000000000  0.0273171433716897  0.0542413015445575   F   F   F
  0.7500000000000000  0.0273171433716897  0.0542413015445575   F   F   F
  0.0000000000000000  0.5273171433716897  0.0542413015445575   F   F   F
  0.5000000000000000  0.5273171433716897  0.0542413015445575   F   F   F
  0.1453444531207140  0.0968963020804807  0.1358866873458524   F   F   F
  0.6453444531207140  0.0968963020804807  0.1358866873458524   F   F   F
  0.3953444531207140  0.5968963020804807  0.1358866873458524   F   F   F
  0.8953444531207140  0.5968963020804807  0.1358866873458524   F   F   F
 
  0.00000000E+00  0.00000000E+00  0.00000000E+00
  0.00000000E+00  0.00000000E+00  0.00000000E+00
  0.00000000E+00  0.00000000E+00  0.00000000E+00
  0.00000000E+00  0.00000000E+00  0.00000000E+00
  0.00000000E+00  0.00000000E+00  0.00000000E+00
  0.00000000E+00  0.00000000E+00  0.00000000E+00
  0.00000000E+00  0.00000000E+00  0.00000000E+00
  0.00000000E+00  0.00000000E+00  0.00000000E+00
  0.00000000E+00  0.00000000E+00  0.00000000E+00
  0.00000000E+00  0.00000000E+00  0.00000000E+00
  0.00000000E+00  0.00000000E+00  0.00000000E+00
  0.00000000E+00  0.00000000E+00  0.00000000E+00
  0.00000000E+00  0.00000000E+00  0.00000000E+00
  0.00000000E+00  0.00000000E+00  0.00000000E+00
  0.00000000E+00  0.00000000E+00  0.00000000E+00
  0.00000000E+00  0.00000000E+00  0.00000000E+00
  0.00000000E+00  0.00000000E+00  0.00000000E+00
  0.00000000E+00  0.00000000E+00  0.00000000E+00
  0.00000000E+00  0.00000000E+00  0.00000000E+00
  0.00000000E+00  0.00000000E+00  0.00000000E+00
  0.00000000E+00  0.00000000E+00  0.00000000E+00
  0.00000000E+00  0.00000000E+00  0.00000000E+00
  0.00000000E+00  0.00000000E+00  0.00000000E+00
  0.00000000E+00  0.00000000E+00  0.00000000E+00
  0.00000000E+00  0.00000000E+00  0.00000000E+00
  0.00000000E+00  0.00000000E+00  0.00000000E+00
  0.00000000E+00  0.00000000E+00  0.00000000E+00
  0.00000000E+00  0.00000000E+00  0.00000000E+00
  0.00000000E+00  0.00000000E+00  0.00000000E+00
  0.00000000E+00  0.00000000E+00  0.00000000E+00
  0.00000000E+00  0.00000000E+00  0.00000000E+00
  0.00000000E+00  0.00000000E+00  0.00000000E+00
  0.00000000E+00  0.00000000E+00  0.00000000E+00
  0.00000000E+00  0.00000000E+00  0.00000000E+00
  0.00000000E+00  0.00000000E+00  0.00000000E+00
  0.00000000E+00  0.00000000E+00  0.00000000E+00
  0.00000000E+00  0.00000000E+00  0.00000000E+00
  0.00000000E+00  0.00000000E+00  0.00000000E+00
  0.00000000E+00  0.00000000E+00  0.00000000E+00
  0.00000000E+00  0.00000000E+00  0.00000000E+00
  0.00000000E+00  0.00000000E+00  0.00000000E+00
  0.00000000E+00  0.00000000E+00  0.00000000E+00
  0.00000000E+00  0.00000000E+00  0.00000000E+00
  0.00000000E+00  0.00000000E+00  0.00000000E+00
  0.00000000E+00  0.00000000E+00  0.00000000E+00
  0.00000000E+00  0.00000000E+00  0.00000000E+00
  0.00000000E+00  0.00000000E+00  0.00000000E+00
  0.00000000E+00  0.00000000E+00  0.00000000E+00
  0.00000000E+00  0.00000000E+00  0.00000000E+00
  0.00000000E+00  0.00000000E+00  0.00000000E+00
  0.00000000E+00  0.00000000E+00  0.00000000E+00
  0.00000000E+00  0.00000000E+00  0.00000000E+00
  0.00000000E+00  0.00000000E+00  0.00000000E+00
  0.00000000E+00  0.00000000E+00  0.00000000E+00
  0.00000000E+00  0.00000000E+00  0.00000000E+00
  0.00000000E+00  0.00000000E+00  0.00000000E+00
  0.00000000E+00  0.00000000E+00  0.00000000E+00
  0.00000000E+00  0.00000000E+00  0.00000000E+00
  0.00000000E+00  0.00000000E+00  0.00000000E+00
  0.00000000E+00  0.00000000E+00  0.00000000E+00
  0.00000000E+00  0.00000000E+00  0.00000000E+00
  0.00000000E+00  0.00000000E+00  0.00000000E+00
  0.00000000E+00  0.00000000E+00  0.00000000E+00
  0.00000000E+00  0.00000000E+00  0.00000000E+00
  0.00000000E+00  0.00000000E+00  0.00000000E+00
  0.00000000E+00  0.00000000E+00  0.00000000E+00
  0.00000000E+00  0.00000000E+00  0.00000000E+00
  0.00000000E+00  0.00000000E+00  0.00000000E+00
  0.00000000E+00  0.00000000E+00  0.00000000E+00
  0.00000000E+00  0.00000000E+00  0.00000000E+00
  0.00000000E+00  0.00000000E+00  0.00000000E+00
  0.00000000E+00  0.00000000E+00  0.00000000E+00
  0.00000000E+00  0.00000000E+00  0.00000000E+00
  0.00000000E+00  0.00000000E+00  0.00000000E+00
  0.00000000E+00  0.00000000E+00  0.00000000E+00
  0.00000000E+00  0.00000000E+00  0.00000000E+00
  0.00000000E+00  0.00000000E+00  0.00000000E+00
  0.00000000E+00  0.00000000E+00  0.00000000E+00
  0.00000000E+00  0.00000000E+00  0.00000000E+00
  0.00000000E+00  0.00000000E+00  0.00000000E+00
  0.00000000E+00  0.00000000E+00  0.00000000E+00
  0.00000000E+00  0.00000000E+00  0.00000000E+00
  0.00000000E+00  0.00000000E+00  0.00000000E+00
  0.00000000E+00  0.00000000E+00  0.00000000E+00
  0.00000000E+00  0.00000000E+00  0.00000000E+00
  0.00000000E+00  0.00000000E+00  0.00000000E+00
  0.00000000E+00  0.00000000E+00  0.00000000E+00
  0.00000000E+00  0.00000000E+00  0.00000000E+00
  0.00000000E+00  0.00000000E+00  0.00000000E+00
  0.00000000E+00  0.00000000E+00  0.00000000E+00
  0.00000000E+00  0.00000000E+00  0.00000000E+00
  0.00000000E+00  0.00000000E+00  0.00000000E+00
  0.00000000E+00  0.00000000E+00  0.00000000E+00
  0.00000000E+00  0.00000000E+00  0.00000000E+00
  0.00000000E+00  0.00000000E+00  0.00000000E+00
  0.00000000E+00  0.00000000E+00  0.00000000E+00
  0.00000000E+00  0.00000000E+00  0.00000000E+00
  0.00000000E+00  0.00000000E+00  0.00000000E+00
  0.00000000E+00  0.00000000E+00  0.00000000E+00
  0.00000000E+00  0.00000000E+00  0.00000000E+00
  0.00000000E+00  0.00000000E+00  0.00000000E+00
  0.00000000E+00  0.00000000E+00  0.00000000E+00
  0.00000000E+00  0.00000000E+00  0.00000000E+00
  0.00000000E+00  0.00000000E+00  0.00000000E+00
  0.00000000E+00  0.00000000E+00  0.00000000E+00
  0.00000000E+00  0.00000000E+00  0.00000000E+00
  0.00000000E+00  0.00000000E+00  0.00000000E+00
  0.00000000E+00  0.00000000E+00  0.00000000E+00
  0.00000000E+00  0.00000000E+00  0.00000000E+00
  0.00000000E+00  0.00000000E+00  0.00000000E+00
  0.00000000E+00  0.00000000E+00  0.00000000E+00
  0.00000000E+00  0.00000000E+00  0.00000000E+00
  0.00000000E+00  0.00000000E+00  0.00000000E+00
  0.00000000E+00  0.00000000E+00  0.00000000E+00
  0.00000000E+00  0.00000000E+00  0.00000000E+00
  0.00000000E+00  0.00000000E+00  0.00000000E+00
  0.00000000E+00  0.00000000E+00  0.00000000E+00
  0.00000000E+00  0.00000000E+00  0.00000000E+00
  0.00000000E+00  0.00000000E+00  0.00000000E+00
  0.00000000E+00  0.00000000E+00  0.00000000E+00
  0.00000000E+00  0.00000000E+00  0.00000000E+00
  0.00000000E+00  0.00000000E+00  0.00000000E+00
  0.00000000E+00  0.00000000E+00  0.00000000E+00
  0.00000000E+00  0.00000000E+00  0.00000000E+00
  0.00000000E+00  0.00000000E+00  0.00000000E+00
  0.00000000E+00  0.00000000E+00  0.00000000E+00
  0.00000000E+00  0.00000000E+00  0.00000000E+00
  0.00000000E+00  0.00000000E+00  0.00000000E+00
  0.00000000E+00  0.00000000E+00  0.00000000E+00
  0.00000000E+00  0.00000000E+00  0.00000000E+00
  0.00000000E+00  0.00000000E+00  0.00000000E+00
  0.00000000E+00  0.00000000E+00  0.00000000E+00
  0.00000000E+00  0.00000000E+00  0.00000000E+00
  0.00000000E+00  0.00000000E+00  0.00000000E+00
  0.00000000E+00  0.00000000E+00  0.00000000E+00
  0.00000000E+00  0.00000000E+00  0.00000000E+00
