Si2 H16 N4 F12                          
   1.00000000000000     
     2.9064552047061736   -5.0341280844740925    0.0000000000000000
     2.9064552047061736    5.0341280844740925    0.0000000000000000
     0.0000000000000000    0.0000000000000000    9.2549324751751794
   Si   H    N    F 
     2    16     4    12
Direct
  0.6666666666666643  0.3333333333333357  0.7444554939483012
  0.3333333333333357  0.6666666666666643  0.2444554939483012
  0.9034609264130395  0.8069218528260791  0.0506974145880150
  0.5705567423002833  0.4294432576997167  0.4063565920944825
  0.0000000000000000  0.0000000000000000  0.6984054495606387
  0.0000000000000000  0.0000000000000000  0.1984054495606387
  0.1930781471739209  0.0965390735869605  0.0506974145880150
  0.6666666666666643  0.3333333333333357  0.2582117008278644
  0.8588865153994334  0.4294432576997167  0.4063565920944825
  0.0965390735869605  0.9034609264130395  0.5506974145880150
  0.5705567423002833  0.1411134846005666  0.4063565920944825
  0.4294432576997167  0.8588865153994334  0.9063565920944825
  0.9034609264130395  0.0965390735869605  0.0506974145880150
  0.8069218528260791  0.9034609264130395  0.5506974145880150
  0.1411134846005666  0.5705567423002833  0.9063565920944825
  0.3333333333333357  0.6666666666666643  0.7582117008278644
  0.4294432576997167  0.5705567423002833  0.9063565920944825
  0.0965390735869605  0.1930781471739209  0.5506974145880150
  0.0000000000000000  0.0000000000000000  0.5874497067741800
  0.0000000000000000  0.0000000000000000  0.0874497067741800
  0.6666666666666643  0.3333333333333357  0.3690925194384533
  0.3333333333333357  0.6666666666666643  0.8690925194384533
  0.8066463211994730  0.6132926423989389  0.8521412241813167
  0.5270027120184793  0.4729972879815207  0.6382281456197063
  0.9459945759630486  0.4729972879815207  0.6382281456197063
  0.3867073576010611  0.1933536788005270  0.8521412241813167
  0.5270027120184793  0.0540054240369514  0.6382281456197063
  0.8066463211994730  0.1933536788005270  0.8521412241813167
  0.1933536788005270  0.8066463211994730  0.3521412241813238
  0.4729972879815207  0.9459945759630486  0.1382281456196992
  0.6132926423989389  0.8066463211994730  0.3521412241813238
  0.0540054240369514  0.5270027120184793  0.1382281456196992
  0.4729972879815207  0.5270027120184793  0.1382281456196992
  0.1933536788005270  0.3867073576010611  0.3521412241813238
 
  0.00000000E+00  0.00000000E+00  0.00000000E+00
  0.00000000E+00  0.00000000E+00  0.00000000E+00
  0.00000000E+00  0.00000000E+00  0.00000000E+00
  0.00000000E+00  0.00000000E+00  0.00000000E+00
  0.00000000E+00  0.00000000E+00  0.00000000E+00
  0.00000000E+00  0.00000000E+00  0.00000000E+00
  0.00000000E+00  0.00000000E+00  0.00000000E+00
  0.00000000E+00  0.00000000E+00  0.00000000E+00
  0.00000000E+00  0.00000000E+00  0.00000000E+00
  0.00000000E+00  0.00000000E+00  0.00000000E+00
  0.00000000E+00  0.00000000E+00  0.00000000E+00
  0.00000000E+00  0.00000000E+00  0.00000000E+00
  0.00000000E+00  0.00000000E+00  0.00000000E+00
  0.00000000E+00  0.00000000E+00  0.00000000E+00
  0.00000000E+00  0.00000000E+00  0.00000000E+00
  0.00000000E+00  0.00000000E+00  0.00000000E+00
  0.00000000E+00  0.00000000E+00  0.00000000E+00
  0.00000000E+00  0.00000000E+00  0.00000000E+00
  0.00000000E+00  0.00000000E+00  0.00000000E+00
  0.00000000E+00  0.00000000E+00  0.00000000E+00
  0.00000000E+00  0.00000000E+00  0.00000000E+00
  0.00000000E+00  0.00000000E+00  0.00000000E+00
  0.00000000E+00  0.00000000E+00  0.00000000E+00
  0.00000000E+00  0.00000000E+00  0.00000000E+00
  0.00000000E+00  0.00000000E+00  0.00000000E+00
  0.00000000E+00  0.00000000E+00  0.00000000E+00
  0.00000000E+00  0.00000000E+00  0.00000000E+00
  0.00000000E+00  0.00000000E+00  0.00000000E+00
  0.00000000E+00  0.00000000E+00  0.00000000E+00
  0.00000000E+00  0.00000000E+00  0.00000000E+00
  0.00000000E+00  0.00000000E+00  0.00000000E+00
  0.00000000E+00  0.00000000E+00  0.00000000E+00
  0.00000000E+00  0.00000000E+00  0.00000000E+00
  0.00000000E+00  0.00000000E+00  0.00000000E+00
