Si H  N  F 
 1.0000000000000000
     5.8266837572726002    0.0000000000000000    0.0000000000000000
     0.0000000000000000   10.0921123072324992    0.0000000000000000
     0.0000000000000000    0.0000000000000000    9.2900062093924998
 Si  H   N   F  
   4  32   8  24
Cartesian
  2.9133418786362997  8.4100935893604571  6.9160802847241749
  0.0000000000000003  3.3640374357442067  6.9160802847241749
  2.9133418786363006  1.6820187178720927  2.2710771800279255
  0.0000000000000003  6.7280748714883423  2.2710771800279255
  4.9851652213263078  9.6062613539758637  0.4697338188562549
  2.0718233426900090  4.5602052003596132  0.4697338188562549
  2.9133418786363006  9.3783006694272100  3.7743185054730417
  0.0000000000000016  4.3322445158109568  3.7743185054730417
  0.0000000000000000  0.0000000000000000  6.4835608586420346
  2.9133418786362997  5.0460561536162505  6.4835608586420346
  0.0000000000000000  0.0000000000000000  1.8385577539457831
  2.9133418786362997  5.0460561536162505  1.8385577539457831
  0.8415185359462933  9.6062613539758264  0.4697338188562549
  3.7548604145825935  4.5602052003595759  0.4697338188562549
  2.9133418786362997  8.4100935893604571  2.4034389642487310
  0.0000000000000003  3.3640374357442067  2.4034389642487310
  3.7518338060980545  7.9259900493270887  3.7743185054730417
  0.8384919274617552  2.8799338957108374  3.7743185054730417
  2.9133418786363006  4.0743542471030123  5.1147369235525062
  0.0000000000000003  9.1204104007192619  5.1147369235525062
  2.0748499511745457  7.9259900493270727  3.7743185054730417
  4.9881918298108463  2.8799338957108209  3.7743185054730417
  3.7518338060980545  2.1661222579054775  8.4193216101692929
  0.8384919274617552  7.2121784115217276  8.4193216101692929
  2.9133418786363006  6.0177580601295375  0.4697338188562549
  0.0000000000000016  0.9717019065132865  0.4697338188562549
  4.9851652213263078  0.4858509532567226  5.1147369235525062
  2.0718233426900077  5.5319071068729730  5.1147369235525062
  2.0748499511745462  2.1661222579054624  8.4193216101692929
  4.9881918298108463  7.2121784115217125  8.4193216101692929
  2.9133418786363006  1.6820187178720927  7.0484420689449800
  0.0000000000000003  6.7280748714883423  7.0484420689449800
  2.9133418786362997  0.7138116378053422  8.4193216101692929
  0.0000000000000003  5.7598677914215921  8.4193216101692929
  0.8415185359462937  0.4858509532566876  5.1147369235525062
  3.7548604145825935  5.5319071068729384  5.1147369235525062
  0.0000000000000000  0.0000000000000000  5.4559785463266808
  2.9133418786362997  5.0460561536162505  5.4559785463266808
  0.0000000000000000  0.0000000000000000  0.8109754416304293
  2.9133418786362997  5.0460561536162505  0.8109754416304293
  2.9133418786362997  8.4100935893604571  3.4297171686954973
  0.0000000000000003  3.3640374357442067  3.4297171686954973
  2.9133418786363006  1.6820187178720927  8.0747202733917440
  0.0000000000000003  6.7280748714883423  8.0747202733917440
  4.1329314288563168  9.1142239444808126  7.9154254029570570
  1.2195895502200162  4.0681677908645604  7.9154254029570570
  2.9133418786362997  9.8164246284126904  5.9322584748753480
  0.0000000000000003  4.7703684747964399  5.9322584748753480
  4.1312602845860891  7.7069280698343512  5.9322584748753480
  1.2179184059497903  2.6608719162181012  5.9322584748753480
  1.6937523284162823  9.1142239444807860  7.9154254029570570
  4.6070942070525822  4.0681677908645346  7.9154254029570570
  1.6954234726865112  7.7069280698343308  5.9322584748753480
  4.6087653513228108  2.6608719162180798  5.9322584748753480
  2.9133418786362983  7.0018328791196360  7.9154254029570570
 -0.0000000000000010  1.9557767255033860  7.9154254029570570
  2.9133418786362983  3.0902794281129142  3.2704222982608115
 -0.0000000000000010  8.1363355817291634  3.2704222982608115
  4.1312602845860900  2.3851842373982199  1.2872553701790952
  1.2179184059497903  7.4312403910144704  1.2872553701790952
  4.1329314288563168  0.9778883627517601  3.2704222982608115
  1.2195895502200176  6.0239445163680099  3.2704222982608115
  1.6954234726865118  2.3851842373981986  1.2872553701790952
  4.6087653513228117  7.4312403910144491  1.2872553701790952
  2.9133418786362997  0.2756876788198599  1.2872553701790952
  0.0000000000000016  5.3217438324361099  1.2872553701790952
  1.6937523284162819  0.9778883627517423  3.2704222982608115
  4.6070942070525822  6.0239445163679912  3.2704222982608115
