make supercell ['Si', 'H', 'N', 'F']
 1.00000000000000
      5.8266837572726 -10.0921123072325 -0.0000000000000
      2.9133418786363  5.0460561536163 -0.0000000000000
      0.0000000000000  0.0000000000000  9.2900062093925
   Si   H    N    F
   4  32  8  24
Selective dynamics
Direct
  0.3333333333333321  0.3333333333333357  0.7444645491982332   T   T   T
  0.8333333333333321  0.3333333333333357  0.7444645491982332   T   T   T
  0.1666666666666679  0.6666666666666643  0.2444645491982333   T   T   T
  0.6666666666666679  0.6666666666666643  0.2444645491982333   T   T   T
  0.4518583485333931  0.8074333941335652  0.0505633482119031   T   T   T
  0.9518583485333931  0.8074333941335652  0.0505633482119031   T   T   T
  0.2853648282973308  0.4292703434053385  0.4062772855476762   T   T   T
  0.7853648282973309  0.4292703434053385  0.4062772855476762   T   T   T
  0.0000000000000000  0.0000000000000000  0.6979070532899044   T   T   T
  0.5000000000000000  0.0000000000000000  0.6979070532899044   T   T   T
  0.0000000000000000  0.0000000000000000  0.1979070532899043   T   T   T
  0.5000000000000000  0.0000000000000000  0.1979070532899043   T   T   T
  0.0962833029332175  0.0962833029332140  0.0505633482119031   T   T   T
  0.5962833029332175  0.0962833029332140  0.0505633482119031   T   T   T
  0.3333333333333321  0.3333333333333357  0.2587123097742148   T   T   T
  0.8333333333333321  0.3333333333333357  0.2587123097742148   T   T   T
  0.4292703434053349  0.4292703434053385  0.4062772855476762   T   T   T
  0.9292703434053349  0.4292703434053385  0.4062772855476762   T   T   T
  0.0481416514666070  0.9037166970667861  0.5505633482119032   T   T   T
  0.5481416514666070  0.9037166970667861  0.5505633482119032   T   T   T
  0.2853648282973308  0.1414593131893302  0.4062772855476762   T   T   T
  0.7853648282973309  0.1414593131893302  0.4062772855476762   T   T   T
  0.2146351717026692  0.8585406868106699  0.9062772855476763   T   T   T
  0.7146351717026692  0.8585406868106699  0.9062772855476763   T   T   T
  0.4518583485333931  0.0962833029332140  0.0505633482119031   T   T   T
  0.9518583485333931  0.0962833029332140  0.0505633482119031   T   T   T
  0.4037166970667826  0.9037166970667861  0.5505633482119032   T   T   T
  0.9037166970667826  0.9037166970667861  0.5505633482119032   T   T   T
  0.0707296565946651  0.5707296565946617  0.9062772855476763   T   T   T
  0.5707296565946651  0.5707296565946617  0.9062772855476763   T   T   T
  0.1666666666666679  0.6666666666666643  0.7587123097742147   T   T   T
  0.6666666666666679  0.6666666666666643  0.7587123097742147   T   T   T
  0.2146351717026692  0.5707296565946617  0.9062772855476763   T   T   T
  0.7146351717026692  0.5707296565946617  0.9062772855476763   T   T   T
  0.0481416514666070  0.1925666058664351  0.5505633482119032   T   T   T
  0.5481416514666070  0.1925666058664351  0.5505633482119032   T   T   T
  0.0000000000000000  0.0000000000000000  0.5872954682000652   T   T   T
  0.5000000000000000  0.0000000000000000  0.5872954682000652   T   T   T
  0.0000000000000000  0.0000000000000000  0.0872954682000650   T   T   T
  0.5000000000000000  0.0000000000000000  0.0872954682000650   T   T   T
  0.3333333333333321  0.3333333333333357  0.3691835173616936   T   T   T
  0.8333333333333321  0.3333333333333357  0.3691835173616936   T   T   T
  0.1666666666666679  0.6666666666666643  0.8691835173616933   T   T   T
  0.6666666666666679  0.6666666666666643  0.8691835173616933   T   T   T
  0.4031036979195240  0.6124147916780902  0.8520366105842108   T   T   T
  0.9031036979195239  0.6124147916780902  0.8520366105842108   T   T   T
  0.2636585716858433  0.4726828566283134  0.6385634563815082   T   T   T
  0.7636585716858433  0.4726828566283134  0.6385634563815082   T   T   T
  0.4726828566283098  0.4726828566283134  0.6385634563815082   T   T   T
  0.9726828566283099  0.4726828566283134  0.6385634563815082   T   T   T
  0.1937926041609550  0.1937926041609514  0.8520366105842108   T   T   T
  0.6937926041609550  0.1937926041609514  0.8520366105842108   T   T   T
  0.2636585716858433  0.0546342867433805  0.6385634563815082   T   T   T
  0.7636585716858433  0.0546342867433805  0.6385634563815082   T   T   T
  0.4031036979195240  0.1937926041609514  0.8520366105842108   T   T   T
  0.9031036979195239  0.1937926041609514  0.8520366105842108   T   T   T
  0.0968963020804757  0.8062073958390480  0.3520366105842112   T   T   T
  0.5968963020804757  0.8062073958390480  0.3520366105842112   T   T   T
  0.2363414283141567  0.9453657132566197  0.1385634563815079   T   T   T
  0.7363414283141567  0.9453657132566197  0.1385634563815079   T   T   T
  0.3062073958390451  0.8062073958390480  0.3520366105842112   T   T   T
  0.8062073958390451  0.8062073958390480  0.3520366105842112   T   T   T
  0.0273171433716903  0.5273171433716867  0.1385634563815079   T   T   T
  0.5273171433716902  0.5273171433716867  0.1385634563815079   T   T   T
  0.2363414283141567  0.5273171433716867  0.1385634563815079   T   T   T
  0.7363414283141567  0.5273171433716867  0.1385634563815079   T   T   T
  0.0968963020804757  0.3875852083219099  0.3520366105842112   T   T   T
  0.5968963020804757  0.3875852083219099  0.3520366105842112   T   T   T
