make supercell ['Si', 'H', 'N', 'F']
 1.00000000000000
     11.6533675145452  0.0000000000000  0.0000000000000
      0.0000000000000 10.0921123072325  0.0000000000000
      0.0000000000000  0.0000000000000  9.2900062093925
   Si  H   N   F
   8  64  16  48
Selective dynamics
Cartesian
  2.9133418786362997  8.4100935893604571  6.9160802847241749   T   T   T
  8.7400256359088999  8.4100935893604571  6.9160802847241749   T   T   T
  0.0000000000000003  3.3640374357442067  6.9160802847241749   T   T   T
  5.8266837572726002  3.3640374357442067  6.9160802847241749   T   T   T
  2.9133418786363006  1.6820187178720927  2.2710771800279255   T   T   T
  8.7400256359088999  1.6820187178720927  2.2710771800279255   T   T   T
  0.0000000000000003  6.7280748714883423  2.2710771800279255   T   T   T
  5.8266837572726002  6.7280748714883423  2.2710771800279255   T   T   T
  4.9851652213263078  9.6062613539758637  0.4697338188562549   T   T   T
 10.8118489785989080  9.6062613539758637  0.4697338188562549   T   T   T
  2.0718233426900090  4.5602052003596132  0.4697338188562549   T   T   T
  7.8985070999626092  4.5602052003596132  0.4697338188562549   T   T   T
  2.9133418786363006  9.3783006694272100  3.7743185054730417   T   T   T
  8.7400256359088999  9.3783006694272100  3.7743185054730417   T   T   T
  0.0000000000000016  4.3322445158109568  3.7743185054730417   T   T   T
  5.8266837572726020  4.3322445158109568  3.7743185054730417   T   T   T
  0.0000000000000000  0.0000000000000000  6.4835608586420346   T   T   T
  5.8266837572726002  0.0000000000000000  6.4835608586420346   T   T   T
  2.9133418786362997  5.0460561536162505  6.4835608586420346   T   T   T
  8.7400256359088999  5.0460561536162505  6.4835608586420346   T   T   T
  0.0000000000000000  0.0000000000000000  1.8385577539457831   T   T   T
  5.8266837572726002  0.0000000000000000  1.8385577539457831   T   T   T
  2.9133418786362997  5.0460561536162505  1.8385577539457831   T   T   T
  8.7400256359088999  5.0460561536162505  1.8385577539457831   T   T   T
  0.8415185359462933  9.6062613539758264  0.4697338188562549   T   T   T
  6.6682022932188936  9.6062613539758264  0.4697338188562549   T   T   T
  3.7548604145825935  4.5602052003595759  0.4697338188562549   T   T   T
  9.5815441718551941  4.5602052003595759  0.4697338188562549   T   T   T
  2.9133418786362997  8.4100935893604571  2.4034389642487310   T   T   T
  8.7400256359088999  8.4100935893604571  2.4034389642487310   T   T   T
  0.0000000000000003  3.3640374357442067  2.4034389642487310   T   T   T
  5.8266837572726002  3.3640374357442067  2.4034389642487310   T   T   T
  3.7518338060980545  7.9259900493270887  3.7743185054730417   T   T   T
  9.5785175633706547  7.9259900493270887  3.7743185054730417   T   T   T
  0.8384919274617552  2.8799338957108374  3.7743185054730417   T   T   T
  6.6651756847343551  2.8799338957108374  3.7743185054730417   T   T   T
  2.9133418786363006  4.0743542471030123  5.1147369235525062   T   T   T
  8.7400256359088999  4.0743542471030123  5.1147369235525062   T   T   T
  0.0000000000000003  9.1204104007192619  5.1147369235525062   T   T   T
  5.8266837572726002  9.1204104007192619  5.1147369235525062   T   T   T
  2.0748499511745457  7.9259900493270727  3.7743185054730417   T   T   T
  7.9015337084471460  7.9259900493270727  3.7743185054730417   T   T   T
  4.9881918298108463  2.8799338957108209  3.7743185054730417   T   T   T
 10.8148755870834457  2.8799338957108209  3.7743185054730417   T   T   T
  3.7518338060980545  2.1661222579054775  8.4193216101692929   T   T   T
  9.5785175633706547  2.1661222579054775  8.4193216101692929   T   T   T
  0.8384919274617552  7.2121784115217276  8.4193216101692929   T   T   T
  6.6651756847343551  7.2121784115217276  8.4193216101692929   T   T   T
  2.9133418786363006  6.0177580601295375  0.4697338188562549   T   T   T
  8.7400256359088999  6.0177580601295375  0.4697338188562549   T   T   T
  0.0000000000000016  0.9717019065132865  0.4697338188562549   T   T   T
  5.8266837572726020  0.9717019065132865  0.4697338188562549   T   T   T
  4.9851652213263078  0.4858509532567226  5.1147369235525062   T   T   T
 10.8118489785989080  0.4858509532567226  5.1147369235525062   T   T   T
  2.0718233426900077  5.5319071068729730  5.1147369235525062   T   T   T
  7.8985070999626075  5.5319071068729730  5.1147369235525062   T   T   T
  2.0748499511745462  2.1661222579054624  8.4193216101692929   T   T   T
  7.9015337084471469  2.1661222579054624  8.4193216101692929   T   T   T
  4.9881918298108463  7.2121784115217125  8.4193216101692929   T   T   T
 10.8148755870834457  7.2121784115217125  8.4193216101692929   T   T   T
  2.9133418786363006  1.6820187178720927  7.0484420689449800   T   T   T
  8.7400256359088999  1.6820187178720927  7.0484420689449800   T   T   T
  0.0000000000000003  6.7280748714883423  7.0484420689449800   T   T   T
  5.8266837572726002  6.7280748714883423  7.0484420689449800   T   T   T
  2.9133418786362997  0.7138116378053422  8.4193216101692929   T   T   T
  8.7400256359088999  0.7138116378053422  8.4193216101692929   T   T   T
  0.0000000000000003  5.7598677914215921  8.4193216101692929   T   T   T
  5.8266837572726002  5.7598677914215921  8.4193216101692929   T   T   T
  0.8415185359462937  0.4858509532566876  5.1147369235525062   T   T   T
  6.6682022932188936  0.4858509532566876  5.1147369235525062   T   T   T
  3.7548604145825935  5.5319071068729384  5.1147369235525062   T   T   T
  9.5815441718551941  5.5319071068729384  5.1147369235525062   T   T   T
  0.0000000000000000  0.0000000000000000  5.4559785463266808   T   T   T
  5.8266837572726002  0.0000000000000000  5.4559785463266808   T   T   T
  2.9133418786362997  5.0460561536162505  5.4559785463266808   T   T   T
  8.7400256359088999  5.0460561536162505  5.4559785463266808   T   T   T
  0.0000000000000000  0.0000000000000000  0.8109754416304293   T   T   T
  5.8266837572726002  0.0000000000000000  0.8109754416304293   T   T   T
  2.9133418786362997  5.0460561536162505  0.8109754416304293   T   T   T
  8.7400256359088999  5.0460561536162505  0.8109754416304293   T   T   T
  2.9133418786362997  8.4100935893604571  3.4297171686954973   T   T   T
  8.7400256359088999  8.4100935893604571  3.4297171686954973   T   T   T
  0.0000000000000003  3.3640374357442067  3.4297171686954973   T   T   T
  5.8266837572726002  3.3640374357442067  3.4297171686954973   T   T   T
  2.9133418786363006  1.6820187178720927  8.0747202733917440   T   T   T
  8.7400256359088999  1.6820187178720927  8.0747202733917440   T   T   T
  0.0000000000000003  6.7280748714883423  8.0747202733917440   T   T   T
  5.8266837572726002  6.7280748714883423  8.0747202733917440   T   T   T
  4.1329314288563168  9.1142239444808126  7.9154254029570570   T   T   T
  9.9596151861289179  9.1142239444808126  7.9154254029570570   T   T   T
  1.2195895502200162  4.0681677908645604  7.9154254029570570   T   T   T
  7.0462733074926165  4.0681677908645604  7.9154254029570570   T   T   T
  2.9133418786362997  9.8164246284126904  5.9322584748753480   T   T   T
  8.7400256359088999  9.8164246284126904  5.9322584748753480   T   T   T
  0.0000000000000003  4.7703684747964399  5.9322584748753480   T   T   T
  5.8266837572726002  4.7703684747964399  5.9322584748753480   T   T   T
  4.1312602845860891  7.7069280698343512  5.9322584748753480   T   T   T
  9.9579440418586884  7.7069280698343512  5.9322584748753480   T   T   T
  1.2179184059497903  2.6608719162181012  5.9322584748753480   T   T   T
  7.0446021632223905  2.6608719162181012  5.9322584748753480   T   T   T
  1.6937523284162823  9.1142239444807860  7.9154254029570570   T   T   T
  7.5204360856888828  9.1142239444807860  7.9154254029570570   T   T   T
  4.6070942070525822  4.0681677908645346  7.9154254029570570   T   T   T
 10.4337779643251825  4.0681677908645346  7.9154254029570570   T   T   T
  1.6954234726865112  7.7069280698343308  5.9322584748753480   T   T   T
  7.5221072299591114  7.7069280698343308  5.9322584748753480   T   T   T
  4.6087653513228108  2.6608719162180798  5.9322584748753480   T   T   T
 10.4354491085954102  2.6608719162180798  5.9322584748753480   T   T   T
  2.9133418786362983  7.0018328791196360  7.9154254029570570   T   T   T
  8.7400256359088981  7.0018328791196360  7.9154254029570570   T   T   T
 -0.0000000000000010  1.9557767255033860  7.9154254029570570   T   T   T
  5.8266837572725994  1.9557767255033860  7.9154254029570570   T   T   T
  2.9133418786362983  3.0902794281129142  3.2704222982608115   T   T   T
  8.7400256359088981  3.0902794281129142  3.2704222982608115   T   T   T
 -0.0000000000000010  8.1363355817291634  3.2704222982608115   T   T   T
  5.8266837572725994  8.1363355817291634  3.2704222982608115   T   T   T
  4.1312602845860900  2.3851842373982199  1.2872553701790952   T   T   T
  9.9579440418586902  2.3851842373982199  1.2872553701790952   T   T   T
  1.2179184059497903  7.4312403910144704  1.2872553701790952   T   T   T
  7.0446021632223905  7.4312403910144704  1.2872553701790952   T   T   T
  4.1329314288563168  0.9778883627517601  3.2704222982608115   T   T   T
  9.9596151861289179  0.9778883627517601  3.2704222982608115   T   T   T
  1.2195895502200176  6.0239445163680099  3.2704222982608115   T   T   T
  7.0462733074926174  6.0239445163680099  3.2704222982608115   T   T   T
  1.6954234726865118  2.3851842373981986  1.2872553701790952   T   T   T
  7.5221072299591123  2.3851842373981986  1.2872553701790952   T   T   T
  4.6087653513228117  7.4312403910144491  1.2872553701790952   T   T   T
 10.4354491085954120  7.4312403910144491  1.2872553701790952   T   T   T
  2.9133418786362997  0.2756876788198599  1.2872553701790952   T   T   T
  8.7400256359088999  0.2756876788198599  1.2872553701790952   T   T   T
  0.0000000000000016  5.3217438324361099  1.2872553701790952   T   T   T
  5.8266837572726020  5.3217438324361099  1.2872553701790952   T   T   T
  1.6937523284162819  0.9778883627517423  3.2704222982608115   T   T   T
  7.5204360856888819  0.9778883627517423  3.2704222982608115   T   T   T
  4.6070942070525822  6.0239445163679912  3.2704222982608115   T   T   T
 10.4337779643251825  6.0239445163679912  3.2704222982608115   T   T   T
