F  H  I  N  Si
 1.0000000000000000
    11.6531699554687993    0.0000000000000000    0.0000000000000000
     0.0000000000000000   10.0919412160536002    0.0000000000000000
     0.0000000000000000    0.0000000000000000   38.5094320000000039
 F   H   I   N   Si 
 102  83   7  16   8
Selective dynamics
Cartesian
  2.4646889999999999  2.6830460000000005  0.8160649999999999   F   F   F
  8.2920529999999992  9.4116820000000008  7.4012250000000002   T   T   T
  5.3787609999999999  4.3657110000000001  7.4012240000000000   T   T   T
 11.2053449999999994  4.3657110000000001  7.4012240000000000   T   T   T
  2.4638130000000000  1.2740720000000001  2.8003459999999993   F   F   F
  8.2903979999999997  1.2740720000000001  2.8003459999999993   F   F   F
  5.3771050000000002  6.3200430000000001  2.8003459999999993   F   F   F
 11.2036899999999999  6.3200430000000001  2.8003459999999993   F   F   F
  3.6844579999999993  0.5703440000000000  0.8160649999999999   F   F   F
  2.4654680000000000  9.4116809999999997  7.4012250000000002   T   T   T
  9.5110430000000008  0.5703440000000000  0.8160649999999999   F   F   F
  6.5977509999999988  5.6163140000000000  0.8160649999999999   F   F   F
  9.5110159999999997  6.1076410000000001 13.5268139999999999   T   T   T
  8.3516610000000000  8.0708690000000001 12.1079829999999991   T   T   T
  6.1700939999999997  7.9081739999999998 13.6654649999999993   T   T   T
  7.3294499999999987  5.9449449999999997 15.0842960000000001   T   T   T
  8.4720150000000007  8.1026749999999996 14.5949849999999994   T   T   T
  5.7863980000000002  7.2192040000000004 18.5094320000000003   T   T   T
  6.4829920000000003  7.9610770000000004 16.0243089999999988   T   T   T
  0.7711660000000000  5.6163140000000000  0.8160649999999999   F   F   F
  7.8187459999999991  2.9547490000000001  5.4168609999999999   T   T   T
  1.9921610000000001  2.9547490000000001  5.4168609999999999   T   T   T
 10.7320379999999993  8.0007190000000001  5.4168609999999999   T   T   T
  0.7711660000000000  8.4342629999999996  2.8003459999999993   F   F   F
  9.5110430000000008  3.3882919999999999  2.8003459999999993   F   F   F
  3.6844579999999993  3.3882919999999999  2.8003459999999993   F   F   F
  2.4624999999999999  8.0023859999999996  5.4168609999999999   T   T   T
  8.2890850000000000  8.0023859999999996  5.4168609999999999   T   T   T
  5.3757929999999998  2.9564159999999999  5.4168609999999999   T   T   T
 11.2023770000000003  2.9564159999999999  5.4168609999999999   T   T   T
  3.6834849999999997  7.2986420000000001  7.4012240000000000   T   T   T
  9.5100689999999997  7.2986420000000001  7.4012240000000000   T   T   T
  0.7701920000000000  2.2526720000000000  7.4012240000000000   T   T   T
  6.5967769999999994  2.2526720000000000  7.4012240000000000   T   T   T
 11.2045659999999998  7.7290169999999998  0.8160649999999999   F   F   F
  5.3779810000000001  7.7290169999999998  0.8160649999999999   F   F   F
  8.2912739999999978  2.6830460000000005  0.8160649999999999   F   F   F
  7.8183959999999999  6.3200430000000001  2.8003459999999993   F   F   F
  1.9918110000000000  6.3200430000000001  2.8003459999999993   F   F   F
 10.7316889999999994  1.2740720000000001  2.8003459999999993   F   F   F
  4.9051039999999997  1.2740720000000001  2.8003459999999993   F   F   F
  4.9054539999999998  8.0007190000000001  5.4168609999999999   T   T   T
  4.0931490000000004  9.1442130000000006 15.7076189999999993   T   T   T
  3.3965550000000002  8.4023400000000006 18.1927419999999991   T   T   T
  5.5440790000000000  9.5576439999999998 17.6886679999999998   T   T   T
  3.7449710000000000  8.3196449999999995 12.0801329999999982   T   T   T
  2.8077709999999998  3.5228090000000001 16.6695509999999985   T   T   T
  1.2484580000000001  4.8477569999999996 15.4533149999999981   T   T   T
  4.9778719999999987  1.9673300000000000 16.7647089999999999   T   T   T
 11.3957859999999993  5.7822649999999998 17.6651080000000000   T   T   T
  8.9227539999999994  0.8705920000000000 18.4765379999999979   T   T   T
  9.3242049999999992  0.5472120000000000 13.9835649999999987   T   T   T
 -0.0075480000000000  0.5103270000000000 18.4797859999999972   T   T   T
  5.7939460000000000  5.3494470000000005 16.9802269999999993   T   T   T
  6.1885589999999997 10.1135490000000008 15.0534579999999991   T   T   T
  8.1575900000000008  7.4181170000000005 18.4765729999999984   T   T   T
  2.3040430000000001 10.1085209999999996 16.9449139999999971   T   T   T
 11.7000030000000006  2.5144229999999999 13.2994529999999997   T   T   T
  7.2258699999999996  3.9232819999999999 18.3994719999999994   T   T   T
 10.9434949999999986  8.8905870000000000 16.3802629999999994   T   T   T
 11.3208529999999996  7.5117490000000009 14.1734839999999984   T   T   T
  3.8240460000000001  6.3017890000000003 15.0033100000000008   T   T   T
  1.1234690000000001  7.5414540000000008 18.4783890000000000   T   T   T
  4.3403739999999997  3.9992390000000002 14.0296110000000009   T   T   T
  2.8275910000000000  1.6422730000000003 14.5701509999999992   T   T   T
  2.6787969999999994  1.8058010000000000 18.4684199999999983   T   T   T
  6.5977509999999988  8.4342629999999996  2.8003459999999993   F   F   F
  4.6079410000000003  3.6719889999999999 18.3835549999999976   T   T   T
  0.8174190000000000  3.7156509999999998 18.1534599999999955   T   T   T
  1.1270380000000000  8.4543520000000001 11.4972659999999980   T   T   T
  1.0230010000000000  5.7752549999999996 11.3453789999999994   T   T   T
  3.6409349999999994  5.6405490000000000 11.9282459999999997   T   T   T
  2.0305970000000002  6.9721739999999999 13.2825969999999991   T   T   T
  9.9105969999999992  3.7081800000000000 17.7954139999999974   T   T   T
 11.5042510000000000  2.9351150000000001 15.7769769999999987   T   T   T
  9.4266660000000009  3.0788750000000000 14.0815630000000009   T   T   T
  7.8330120000000001  3.8519400000000004 16.1000009999999989   T   T   T
 10.0262250000000002  4.9338080000000000 15.6308950000000006   T   T   T
 10.4893800000000006  5.9282789999999999 11.3537879999999998   T   T   T
  9.5339139999999976  3.4256129999999998 11.5414110000000001   T   T   T
  7.2574259999999988  4.2053599999999998 10.3493310000000012   T   T   T
  8.2128929999999993  6.7080260000000003 10.1617079999999991   T   T   T
  9.5071469999999998  4.7169819999999998  9.4124850000000002   T   T   T
  4.4858380000000002  2.9355970000000000 10.5959260000000004   T   T   T
  4.3228160000000004  0.2554170000000000 10.6347730000000009   T   T   T
  2.3962729999999999  0.3996330000000000 12.5000029999999995   T   T   T
  2.5592940000000000  3.0798139999999998 12.4611569999999983   T   T   T
  2.3230990000000000  1.7188209999999999 10.3893000000000004   T   T   T
  2.7465619999999999  5.5818380000000003 18.0685959999999994   T   T   T
  4.9042279999999998  2.6830460000000005  0.8160649999999999   F   F   F
  6.8939979999999998  4.0459589999999999 13.7175599999999989   T   T   T
  1.9909349999999999  7.7290169999999998  0.8160649999999999   F   F   F
  6.5987129999999992  5.0712419999999998  5.4168609999999999   T   T   T
  0.7721289999999998  5.0712419999999998  5.4168609999999999   T   T   T
  9.5120050000000003 10.1172120000000003  5.4168609999999999   T   T   T
  3.6854209999999994 10.1172120000000003  5.4168609999999999   T   T   T
 10.7308129999999977  2.6830460000000005  0.8160649999999999   F   F   F
  1.9911300000000001  4.3640239999999997  7.4012240000000000   T   T   T
 10.7310070000000000  9.4099950000000003  7.4012240000000000   T   T   T
  4.9044220000000003  9.4099950000000003  7.4012240000000000   T   T   T
  7.8175200000000000  7.7290169999999998  0.8160649999999999   F   F   F
  7.8177149999999989  4.3640239999999997  7.4012240000000000   T   T   T
  9.5103939999999998  0.9934280000000000  7.9216669999999993   T   T   T
  8.0445410000000006  0.7398840000000000 18.1468840000000000   T   T   T
  2.8314140000000001  2.4720659999999999  7.9216659999999992   T   T   T
 10.7613679999999992  6.0890800000000000 18.2978740000000002   T   T   T
  7.4393029999999998  0.7827480000000000  4.7083020000000007   T   T   T
  5.8181430000000001  2.4042289999999999 16.7735419999999955   T   T   T
  4.5260109999999996  5.8287180000000003  4.7083020000000007   T   T   T
  0.4601459999999999  5.1214729999999999 15.0053679999999989   T   T   T
 10.3525960000000001  5.8287190000000004  4.7083020000000007   T   T   T
  3.6838090000000001  0.9934269999999999  7.9216669999999993   T   T   T
  0.7705170000000000  6.0393980000000003  7.9216659999999992   T   T   T
  3.6844579999999993  8.7067730000000001  1.9334299999999998   F   F   F
  1.6121010000000000  9.9032490000000006  0.0000000000000000   F   F   F
  7.4386859999999997  9.9032490000000006  0.0000000000000000   F   F   F
  4.5253930000000002  4.8572780000000000  0.0000000000000000   F   F   F
 10.3519780000000008  4.8572780000000000  0.0000000000000000   F   F   F
  6.5977509999999988  7.0247830000000011  6.5902830000000003   T   T   T
  9.5110430000000008  8.7067730000000001  1.9334299999999998   F   F   F
  0.7711660000000000  3.6608019999999999  1.9334299999999998   F   F   F
  6.5977509999999988  3.6608019999999999  1.9334299999999998   F   F   F
  8.6694420000000001  5.8286350000000002  4.7083020000000007   T   T   T
  9.5110430000000008  9.6740829999999995  3.3038509999999994   F   F   F
  0.7711660000000000  4.6281119999999998  3.3038509999999994   F   F   F
  6.5971019999999987  6.0393980000000003  7.9216659999999992   T   T   T
  8.7749059999999997  0.6644070000000000 14.7461589999999987   T   T   T
  3.6844579999999993  1.9788120000000000  6.5902830000000003   T   T   T
  0.3368950000000000  1.3876679999999999 18.3868099999999934   T   T   T
  8.6733279999999997  8.2231179999999995  3.3038509999999994   F   F   F
  2.0897030000000001  2.1669299999999998 14.8481269999999981   T   T   T
  5.7600360000000004  3.1771470000000002  3.3038509999999994   F   F   F
  4.5688339999999998  3.5853250000000001 14.8502780000000012   T   T   T
 11.5866209999999992  3.1771470000000002  3.3038509999999994   F   F   F
  0.6271550000000000  8.3192299999999992 18.2644959999999976   T   T   T
  4.5381510000000000  2.4709420000000000  7.9216659999999992   T   T   T
  4.3348459999999998  6.5027670000000004 14.2314919999999994   T   T   T
 10.3647360000000006  2.4709430000000001  7.9216669999999993   T   T   T
 10.9958510000000000  8.3537149999999993 13.8862880000000004   T   T   T
  1.6248579999999999  7.5169130000000006  7.9216659999999992   T   T   T
 10.7712380000000003  9.7521000000000004 16.0265169999999983   T   T   T
  7.4514429999999994  7.5169130000000006  7.9216659999999992   T   T   T
  7.7094739999999993  3.1127020000000001 18.4775819999999982   T   T   T
  3.6844579999999993  9.6740829999999995  3.3038509999999994   F   F   F
 11.6287310000000002  3.2584839999999997 12.7178110000000011   T   T   T
  8.6579999999999995  2.4720659999999999  7.9216659999999992   T   T   T
  1.4097329999999999  9.9268710000000002 16.6914839999999991   T   T   T
  5.7447070000000000  7.5180369999999996  7.9216659999999992   T   T   T
  8.2671130000000002  6.5125039999999998 18.2218499999999999   T   T   T
 11.5712919999999997  7.5180369999999996  7.9216669999999993   T   T   T
  5.7027539999999997 10.1036570000000001 14.2404949999999992   T   T   T
  6.5977509999999988  4.6281119999999998  3.3038509999999994   F   F   F
  4.8817110000000001  5.6013630000000010 17.0173699999999997   T   T   T
  9.5110430000000008  1.9788120000000000  6.5902830000000003   T   T   T
  0.7711660000000000  7.0247830000000011  6.5902830000000003   T   T   T
  5.7568149999999996  9.9032490000000006  0.0000000000000000   F   F   F
  1.6127180000000001  0.7827480000000000  4.7083020000000007   T   T   T
  2.8435229999999998  4.8572780000000000  0.0000000000000000   F   F   F
  9.5110430000000008  6.3138210000000008  0.0000000000000000   F   F   F
  3.6844579999999993  6.3138210000000008  0.0000000000000000   F   F   F
  3.6845059999999998  4.3710230000000001  4.7083020000000007   T   T   T
  0.7712139999999998  9.4169940000000008  4.7083020000000007   T   T   T
  6.5977509999999988  1.2678499999999999  0.0000000000000000   F   F   F
  6.5977989999999993  9.4169940000000008  4.7083020000000007   T   T   T
  5.7561499999999999  0.7826650000000001  4.7083020000000007   T   T   T
 11.5827349999999996  0.7826650000000001  4.7083020000000007   T   T   T
  2.8428580000000001  5.8286350000000002  4.7083020000000007   T   T   T
  2.8467430000000000  8.2231179999999995  3.3038509999999994   F   F   F
  4.5221730000000004  8.2231179999999995  3.3038509999999994   F   F   F
 10.3487580000000001  8.2231179999999995  3.3038509999999994   F   F   F
  9.5110910000000004  4.3710240000000002  4.7083020000000007   T   T   T
  9.5110430000000008  5.3427920000000011  6.0756549999999994   T   T   T
  3.6844579999999993  5.3427920000000011  6.0756549999999994   T   T   T
  6.5977509999999988  0.2968220000000000  6.0756549999999994   T   T   T
  0.7711660000000000  0.2968220000000000  6.0756549999999994   T   T   T
  1.6088800000000001  3.1771470000000002  3.3038509999999994   F   F   F
  7.4354649999999989  3.1771470000000002  3.3038509999999994   F   F   F
  9.5110430000000008  5.3427920000000011  1.3692119999999999   F   F   F
  3.6844579999999993  5.3427920000000011  1.3692119999999999   F   F   F
  6.5977509999999988  0.2968220000000000  1.3692119999999999   F   F   F
  0.7711660000000000  0.2968220000000000  1.3692119999999999   F   F   F
  7.1559150000000002  3.7997150000000000 12.8413309999999985   T   T   T
  8.6701080000000008  4.8572780000000000  0.0000000000000000   F   F   F
  0.7711660000000000  1.2678499999999999  0.0000000000000000   F   F   F
 11.5833999999999993  9.9032490000000006  0.0000000000000000   F   F   F
  2.4358320000000000  7.0584939999999987 11.4824449999999985   T   T   T
  4.8511160000000002  7.9798450000000001 17.0234129999999944   T   T   T
  8.7804269999999995  5.1181440000000000 11.0626849999999983   T   T   T
  3.6050699999999996  1.6601030000000001 11.7179519999999986   T   T   T
  7.7479139999999997  6.8472949999999999 13.4495989999999992   T   T   T
  2.6987290000000002  3.7189090000000000 18.5030900000000003   T   T   T
  9.6161689999999993  3.1675540000000000 15.9836159999999978   T   T   T
  9.5110419999999998  1.9788120000000000  7.6208780000000003   T   T   T
  3.6844589999999995  1.9788120000000000  7.6208780000000003   T   T   T
  6.5977509999999988  3.6608019999999999  2.9597560000000001   F   F   F
  0.7711660000000000  3.6608019999999999  2.9597560000000001   F   F   F
  0.7711670000000000  0.2968210000000000  5.0474069999999998   T   T   T
  0.7711660000000000  0.2968220000000000  0.3425449999999999   F   F   F
  3.6844579999999993  8.7067730000000001  2.9597560000000001   F   F   F
  9.5110430000000008  5.3427920000000011  0.3425449999999999   F   F   F
  6.5977509999999988  7.0247820000000001  7.6208780000000003   T   T   T
  6.5977509999999988  0.2968220000000000  0.3425449999999999   F   F   F
  9.5110430000000008  8.7067730000000001  2.9597560000000001   F   F   F
  9.5110430000000008  5.3427920000000011  5.0474080000000008   T   T   T
  3.6844579999999993  5.3427930000000012  5.0474080000000008   T   T   T
  6.5977509999999988  0.2968220000000000  5.0474080000000008   T   T   T
  0.7711660000000000  7.0247820000000001  7.6208780000000003   T   T   T
  3.6844579999999993  5.3427920000000011  0.3425449999999999   F   F   F
  9.5110430000000008  8.7067730000000001  6.4203419999999998   T   T   T
  3.6844579999999993  1.9788120000000000  1.8016859999999999   F   F   F
  9.5110430000000008  1.9788120000000000  1.8016859999999999   F   F   F
  0.7711660000000000  7.0247830000000011  1.8016859999999999   F   F   F
  6.5977509999999988  7.0247830000000011  1.8016859999999999   F   F   F
  3.6844579999999993  8.7067730000000001  6.4203419999999998   T   T   T
  0.7711660000000000  3.6608019999999999  6.4203419999999998   T   T   T
  6.5977499999999996  3.6608019999999999  6.4203419999999998   T   T   T
