F  H  I  N  Si
 1.0000000000000000
    11.6531699554687993    0.0000000000000000    0.0000000000000000
     0.0000000000000000   10.0919412160536002    0.0000000000000000
     0.0000000000000000    0.0000000000000000   37.0821679999999958
 F   H   I   N   Si 
  83  64   7  16   8
Selective dynamics
Cartesian
  7.8175200000000000  7.7290169999999998  0.8160649999999999   F   F   F
  6.5967769999999994  2.2526720000000000  7.4012240000000000   T   T   T
 11.2045659999999998  7.7290169999999998  0.8160649999999999   F   F   F
  5.3779810000000001  7.7290169999999998  0.8160649999999999   F   F   F
  8.2912739999999978  2.6830460000000005  0.8160649999999999   F   F   F
  2.4646889999999999  2.6830460000000005  0.8160649999999999   F   F   F
  7.8183959999999999  6.3200430000000001  2.8003459999999998   F   F   F
  1.9918110000000000  6.3200430000000001  2.8003459999999998   F   F   F
 10.7316889999999994  1.2740720000000001  2.8003459999999998   F   F   F
  4.9051039999999997  1.2740720000000001  2.8003459999999998   F   F   F
  4.9054539999999998  8.0007190000000001  5.4168610000000008   T   T   T
 10.7320379999999993  8.0007190000000001  5.4168610000000008   T   T   T
  1.9921610000000001  2.9547490000000001  5.4168610000000008   T   T   T
  7.8187459999999991  2.9547490000000001  5.4168610000000008   T   T   T
  2.4654680000000000  9.4116809999999997  7.4012250000000002   T   T   T
  8.2920529999999992  9.4116820000000008  7.4012250000000002   T   T   T
  5.3787609999999999  4.3657110000000001  7.4012240000000000   T   T   T
 11.2053449999999994  4.3657110000000001  7.4012240000000000   T   T   T
  0.7701920000000000  2.2526720000000000  7.4012240000000000   T   T   T
  2.4638130000000000  1.2740720000000001  2.8003459999999998   F   F   F
  9.5100689999999997  7.2986420000000001  7.4012240000000000   T   T   T
 11.2023770000000003  2.9564159999999999  5.4168610000000008   T   T   T
  6.5987129999999992  5.0712419999999998  5.4168610000000008   T   T   T
  3.6854209999999994 10.1172120000000003  5.4168610000000008   T   T   T
  7.8177149999999989  4.3640239999999997  7.4012240000000000   T   T   T
  1.9911300000000001  4.3640239999999997  7.4012240000000000   T   T   T
 10.7310070000000000  9.4099950000000003  7.4012240000000000   T   T   T
  4.9044220000000003  9.4099950000000003  7.4012240000000000   T   T   T
  1.9560999999999999  2.8028700000000004 15.2043239999999997   T   T   T
  1.9909349999999999  7.7290169999999998  0.8160649999999999   F   F   F
 10.7308129999999977  2.6830460000000005  0.8160649999999999   F   F   F
  4.9042279999999998  2.6830460000000005  0.8160649999999999   F   F   F
  6.5977509999999988  8.4342629999999996  2.8003459999999998   F   F   F
  0.7711660000000000  8.4342629999999996  2.8003459999999998   F   F   F
  9.5110430000000008  3.3882919999999999  2.8003459999999998   F   F   F
  3.6844579999999993  3.3882919999999999  2.8003459999999998   F   F   F
  2.4624999999999999  8.0023859999999996  5.4168610000000008   T   T   T
  8.2890850000000000  8.0023859999999996  5.4168610000000008   T   T   T
  5.3757929999999998  2.9564159999999999  5.4168610000000008   T   T   T
  3.6834849999999997  7.2986420000000001  7.4012240000000000   T   T   T
  0.7721289999999998  5.0712419999999998  5.4168610000000008   T   T   T
  8.2903979999999997  1.2740720000000001  2.8003459999999998   F   F   F
 11.2036899999999999  6.3200430000000001  2.8003459999999998   F   F   F
 10.4310659999999995  9.3769930000000006 12.2549630000000001   T   T   T
 11.2799209999999999  6.8897440000000003 11.7031559999999999   T   T   T
 11.0374400000000001  8.6448540000000005  9.9534500000000001   T   T   T
 11.2441449999999996  2.7832330000000001 14.8974180000000000   T   T   T
 11.6190029999999993  3.0750430000000000 12.2543550000000003   T   T   T
 11.7508909999999993  0.4070910000000000 11.9785020000000006   T   T   T
 11.3760340000000006  0.1152820000000000 14.6215650000000004   T   T   T
  9.9043679999999998  1.5403940000000000 13.2059619999999995   T   T   T
  4.8911249999999997  6.0180800000000003 16.6281900000000000   T   T   T
  4.4290789999999998  4.1153360000000001 14.7903839999999995   T   T   T
  6.8669979999999997  3.0848470000000003 15.2443620000000006   T   T   T
  7.3290439999999997  4.9875910000000001 17.0821679999999994   T   T   T
  5.2630619999999997  3.5974879999999998 17.0788289999999989   T   T   T
  3.6739530000000000  1.8502230000000000 16.7347219999999979   T   T   T
  1.0675980000000000  1.2299650000000000 16.9181530000000002   T   T   T
  0.4439160000000000  3.8417770000000004 16.8879669999999997   T   T   T
  3.0502720000000001  4.4620350000000002 16.7045359999999974   T   T   T
  8.6314089999999997  9.2033100000000001 10.2693849999999980   T   T   T
  5.3771050000000002  6.3200430000000001  2.8003459999999998   F   F   F
  9.4802630000000008  6.7160609999999998  9.7175779999999996   T   T   T
  2.8139740000000000  5.8372240000000000  9.1338249999999999   T   T   T
  3.6844579999999993  0.5703440000000000  0.8160649999999999   F   F   F
  9.5110430000000008  0.5703440000000000  0.8160649999999999   F   F   F
  0.7711660000000000  5.6163140000000000  0.8160649999999999   F   F   F
  6.5977509999999988  5.6163140000000000  0.8160649999999999   F   F   F
  5.5742370000000001  3.0517259999999999 12.4401170000000008   T   T   T
  7.0634180000000004  3.7279819999999999 10.3102180000000008   T   T   T
  8.9189120000000006  1.9274110000000000 11.0358479999999997   T   T   T
  7.4297310000000003  1.2511550000000000 13.1657479999999989   T   T   T
  6.4995240000000001  1.3653910000000000 10.8587269999999982   T   T   T
  9.0306970000000000  7.9898520000000000 16.6254179999999998   T   T   T
  9.0708819999999992  8.3401340000000008 13.9632500000000004   T   T   T
 11.6779060000000001  7.6976100000000001 13.9180600000000005   T   T   T
 11.6377220000000001  7.3473290000000002 16.5802289999999992   T   T   T
  9.9686749999999993  6.2938130000000010 15.0619839999999989   T   T   T
  4.3971609999999997  3.8330519999999999  9.9634429999999998   T   T   T
  5.5926900000000002  5.4963090000000010 11.7000329999999995   T   T   T
  4.0095029999999996  7.5004809999999997 10.8704140000000002   T   T   T
  3.1176460000000001  5.2741760000000006 11.5403649999999978   T   T   T
  9.5120050000000003 10.1172120000000003  5.4168610000000008   T   T   T
  1.6127180000000001  0.7827480000000000  4.7083020000000007   T   T   T
  0.7711660000000000  0.2968220000000000  6.0756550000000002   T   T   T
  6.5977509999999988  0.2968220000000000  6.0756550000000002   T   T   T
  3.6838090000000001  0.9934269999999999  7.9216670000000002   T   T   T
  9.5110430000000008  5.3427920000000011  1.3692119999999999   F   F   F
  3.6844579999999993  5.3427920000000011  1.3692119999999999   F   F   F
  6.5977509999999988  0.2968220000000000  1.3692119999999999   F   F   F
  0.7711660000000000  0.2968220000000000  1.3692119999999999   F   F   F
  8.6701080000000008  4.8572780000000000  0.0000000000000000   F   F   F
  2.8435229999999998  4.8572780000000000  0.0000000000000000   F   F   F
 11.5833999999999993  9.9032490000000006  0.0000000000000000   F   F   F
  5.7568149999999996  9.9032490000000006  0.0000000000000000   F   F   F
  6.5977509999999988  4.6281119999999998  3.3038509999999999   F   F   F
  9.5110430000000008  1.9788120000000000  6.5902830000000003   T   T   T
  0.7711660000000000  7.0247830000000011  6.5902830000000003   T   T   T
  3.6844579999999993  5.3427920000000011  6.0756550000000002   T   T   T
  6.5971019999999987  6.0393980000000003  7.9216660000000001   T   T   T
  2.8314140000000001  2.4720659999999999  7.9216660000000001   T   T   T
  7.4393029999999998  0.7827480000000000  4.7083020000000007   T   T   T
  4.5260109999999996  5.8287180000000003  4.7083020000000007   T   T   T
 10.3525960000000001  5.8287190000000004  4.7083020000000007   T   T   T
  0.7711660000000000  4.6281119999999998  3.3038509999999999   F   F   F
  9.5110430000000008  9.6740829999999995  3.3038509999999999   F   F   F
  8.6694420000000001  5.8286350000000002  4.7083020000000007   T   T   T
  6.5977509999999988  3.6608019999999999  1.9334300000000000   F   F   F
  0.7711660000000000  3.6608019999999999  1.9334300000000000   F   F   F
  1.6121010000000000  9.9032490000000006  0.0000000000000000   F   F   F
  9.5110430000000008  8.7067730000000001  1.9334300000000000   F   F   F
  3.6844579999999993  8.7067730000000001  1.9334300000000000   F   F   F
 10.3519780000000008  4.8572780000000000  0.0000000000000000   F   F   F
  6.5977509999999988  7.0247830000000011  6.5902830000000003   T   T   T
  4.5253930000000002  4.8572780000000000  0.0000000000000000   F   F   F
  9.5110430000000008  5.3427920000000011  6.0756550000000002   T   T   T
  2.8467430000000000  8.2231179999999995  3.3038509999999999   F   F   F
  8.6733279999999997  8.2231179999999995  3.3038509999999999   F   F   F
  5.7600360000000004  3.1771470000000002  3.3038509999999999   F   F   F
 11.5866209999999992  3.1771470000000002  3.3038509999999999   F   F   F
  4.5381510000000000  2.4709420000000000  7.9216660000000001   T   T   T
  9.5103939999999998  0.9934280000000000  7.9216670000000002   T   T   T
 10.3647360000000006  2.4709430000000001  7.9216670000000002   T   T   T
  1.6248579999999999  7.5169130000000006  7.9216660000000001   T   T   T
  7.4514429999999994  7.5169130000000006  7.9216660000000001   T   T   T
  3.6844579999999993  9.6740829999999995  3.3038509999999999   F   F   F
  8.6579999999999995  2.4720659999999999  7.9216660000000001   T   T   T
  0.7705170000000000  6.0393980000000003  7.9216660000000001   T   T   T
  5.7447070000000000  7.5180369999999996  7.9216660000000001   T   T   T
 11.5712919999999997  7.5180369999999996  7.9216670000000002   T   T   T
  9.5110910000000004  4.3710240000000002  4.7083020000000007   T   T   T
  3.6844579999999993  1.9788120000000000  6.5902830000000003   T   T   T
  1.6088800000000001  3.1771470000000002  3.3038509999999999   F   F   F
 10.3487580000000001  8.2231179999999995  3.3038509999999999   F   F   F
  4.5221730000000004  8.2231179999999995  3.3038509999999999   F   F   F
  6.5977989999999993  9.4169940000000008  4.7083020000000007   T   T   T
  0.7712139999999998  9.4169940000000008  4.7083020000000007   T   T   T
  3.6845059999999998  4.3710230000000001  4.7083020000000007   T   T   T
  3.6844579999999993  6.3138210000000008  0.0000000000000000   F   F   F
  9.5110430000000008  6.3138210000000008  0.0000000000000000   F   F   F
  0.7711660000000000  1.2678499999999999  0.0000000000000000   F   F   F
  6.5977509999999988  1.2678499999999999  0.0000000000000000   F   F   F
  5.7561499999999999  0.7826650000000001  4.7083020000000007   T   T   T
 11.5827349999999996  0.7826650000000001  4.7083020000000007   T   T   T
  2.8428580000000001  5.8286350000000002  4.7083020000000007   T   T   T
  7.4354649999999989  3.1771470000000002  3.3038509999999999   F   F   F
  7.4386859999999997  9.9032490000000006  0.0000000000000000   F   F   F
  2.0740219999999998  2.8523269999999998 17.0471100000000000   T   T   T
  7.3561740000000002  2.6544960000000000 11.8669779999999996   T   T   T
  9.7969580000000001  7.9587469999999998 11.1377950000000006   T   T   T
 11.7312480000000008  1.6031970000000000 13.4719960000000007   T   T   T
  5.9694339999999988  4.6914210000000001 15.7686530000000005   T   T   T
 10.4108769999999993  8.0711189999999995 15.3025119999999983   T   T   T
  4.3626129999999996  5.7243630000000003 10.2521100000000001   T   T   T
  6.5977509999999988  3.6608019999999999  2.9597559999999996   F   F   F
  6.5977509999999988  0.2968220000000000  0.3425450000000000   F   F   F
  3.6844589999999995  1.9788120000000000  7.6208780000000003   T   T   T
  9.5110419999999998  1.9788120000000000  7.6208780000000003   T   T   T
  0.7711660000000000  7.0247820000000001  7.6208780000000003   T   T   T
  0.7711660000000000  3.6608019999999999  2.9597559999999996   F   F   F
  6.5977509999999988  7.0247820000000001  7.6208780000000003   T   T   T
  0.7711670000000000  0.2968210000000000  5.0474070000000006   T   T   T
  0.7711660000000000  0.2968220000000000  0.3425450000000000   F   F   F
  3.6844579999999993  8.7067730000000001  2.9597559999999996   F   F   F
  9.5110430000000008  5.3427920000000011  0.3425450000000000   F   F   F
  3.6844579999999993  5.3427920000000011  0.3425450000000000   F   F   F
  6.5977509999999988  0.2968220000000000  5.0474079999999999   T   T   T
  9.5110430000000008  8.7067730000000001  2.9597559999999996   F   F   F
  9.5110430000000008  5.3427920000000011  5.0474079999999999   T   T   T
  3.6844579999999993  5.3427930000000012  5.0474079999999999   T   T   T
  9.5110430000000008  1.9788120000000000  1.8016859999999999   F   F   F
  6.5977499999999996  3.6608019999999999  6.4203420000000007   T   T   T
  0.7711660000000000  3.6608019999999999  6.4203420000000007   T   T   T
  3.6844579999999993  8.7067730000000001  6.4203420000000007   T   T   T
  6.5977509999999988  7.0247830000000011  1.8016859999999999   F   F   F
  0.7711660000000000  7.0247830000000011  1.8016859999999999   F   F   F
  3.6844579999999993  1.9788120000000000  1.8016859999999999   F   F   F
  9.5110430000000008  8.7067730000000001  6.4203420000000007   T   T   T
