F  H  I  N  Si
 1.0000000000000000
    11.6531699554687993    0.0000000000000000    0.0000000000000000
     0.0000000000000000   10.0919412160536002    0.0000000000000000
     0.0000000000000000    0.0000000000000000   38.5094320000000039
 F   H   I   N   Si 
 102  83   7  16   8
Selective dynamics
Cartesian
  2.4646889999999999  2.6830460000000005  0.8160649999999997   F   F   F
  8.3173243959613803  9.2807294640872122  7.7190741701482972   T   T   T
  5.2070589532967411  4.4076145747180639  7.2990662302406530   T   T   T
 11.1899592080496877  4.3651938150439147  7.3553752308720721   T   T   T
  2.4638130000000000  1.2740720000000001  2.8003459999999984   F   F   F
  8.2903979999999997  1.2740720000000001  2.8003459999999984   F   F   F
  5.3771050000000002  6.3200430000000001  2.8003459999999984   F   F   F
 11.2036899999999999  6.3200430000000001  2.8003459999999984   F   F   F
  3.6844579999999993  0.5703440000000000  0.8160649999999997   F   F   F
  2.2832331127865304  9.2653096735499645  7.3697264774221907   T   T   T
  9.5110430000000008  0.5703440000000000  0.8160649999999997   F   F   F
  6.5977509999999988  5.6163140000000000  0.8160649999999997   F   F   F
  7.7617786011173528  5.9168089087071181 13.5492412225683623   T   T   T
  8.3693574478406934  8.3373118573067266 12.5470356537935679   T   T   T
  7.1282064574323813  9.5522227461832738 14.5254999876510151   T   T   T
  6.4979168913764678  7.0551866062756954 15.6044354657555999   T   T   T
  8.8759788939736168  7.6785118796391449 14.8931600483279674   T   T   T
  3.8571827280197515  7.9795915847731491 19.0937272961214006   T   T   T
  5.6428609233916340  9.0768662965411888 17.2128958160306986   T   T   T
  0.7711660000000000  5.6163140000000000  0.8160649999999997   F   F   F
  7.7777151445121184  2.6360465259433554  5.7373791950239514   T   T   T
  1.7456805496104746  2.6308644054186408  5.3613039109759466   T   T   T
 10.4730759473727844  7.7488286778928952  5.5521693322830217   T   T   T
  0.7711660000000000  8.4342629999999996  2.8003459999999984   F   F   F
  9.5110430000000008  3.3882919999999999  2.8003459999999984   F   F   F
  3.6844579999999993  3.3882919999999999  2.8003459999999984   F   F   F
  2.4651859221280765  8.0627197980789376  5.2672119497338610   T   T   T
  8.0591942011719144  8.0457696671316477  5.6532897698582598   T   T   T
  5.4018881383123087  2.8287012953485946  5.4635047500010137   T   T   T
 10.9884008858384377  3.0178340220714723  5.3578332799006185   T   T   T
  3.1737990914164569  7.0335033570517540  7.4073319266264361   T   T   T
  9.1845709711974539  6.9936255896563084  7.5026014573309991   T   T   T
  0.3856835107820075  2.0295305518962654  7.2922976822441266   T   T   T
  6.3156537995012538  2.2246381182235728  7.6532787948416470   T   T   T
 11.2045659999999998  7.7290169999999998  0.8160649999999997   F   F   F
  5.3779810000000001  7.7290169999999998  0.8160649999999997   F   F   F
  8.2912739999999978  2.6830460000000005  0.8160649999999997   F   F   F
  7.8183959999999999  6.3200430000000001  2.8003459999999984   F   F   F
  1.9918110000000000  6.3200430000000001  2.8003459999999984   F   F   F
 10.7316889999999994  1.2740720000000001  2.8003459999999984   F   F   F
  4.9051039999999997  1.2740720000000001  2.8003459999999984   F   F   F
  4.7235076121191355  7.6472453362551729  5.6289938882824382   T   T   T
  3.4920770594313026  8.7317259841214447 15.3292722888969646   T   T   T
  1.9968297343779724  7.8729026822784132 17.2855578576732754   T   T   T
  3.4934710580914352  9.9999081162958170 17.5828114488914373   T   T   T
  4.0630831254312971  8.4151931155472575 12.8492123882453022   T   T   T
  2.2598009846144862  3.4033196802404913 18.7906989835683369   T   T   T
  1.0532142291695548  5.3501440252353776 16.3873189984804952   T   T   T
  5.1811933720122010  3.3224113536331727 15.3397424189813698   T   T   T
  9.8373403458304995  6.6870786898950181 17.8785085482172121   T   T   T
  8.0857617845244167 -0.8545140386691075 17.5996460455212116   T   T   T
 10.3983884230065478 -0.8602524762081990 16.6817876065967177   T   T   T
 -1.9761987423370941  1.8072229182010080 21.3530572987227174   T   T   T
  5.9482376623110689  5.1004711077077554 16.9910610928149879   T   T   T
  6.6857006506570373 13.5700071923036987 13.2891730688663294   T   T   T
  7.9559842828724614  5.4078802090435971 18.4362724299957534   T   T   T
  1.2699525456357157 11.3568363631229641 15.6163719792465372   T   T   T
 11.1987349156403866  0.2951047847970188 14.1971377382803876   T   T   T
  6.9436783385762899  2.9636566330431804 19.8399560427166222   T   T   T
 10.5275571429073516 10.8452974214948110 19.1818419654699888   T   T   T
 11.6559955737872727  7.4175115558838574 15.5588319156836850   T   T   T
  3.1472757493221293  5.4209599681662262 15.2194147371694708   T   T   T
 -1.7534689107334609  8.4810328505228245 19.7701133924964907   T   T   T
  4.6102728992861790  5.8625884000190664 13.2394245138778022   T   T   T
  3.5762759199594534  1.6626209169241997 15.0341693097223956   T   T   T
  3.8158272602917540  1.7805020202672723 19.8233455910875840   T   T   T
  6.5977509999999988  8.4342629999999996  2.8003459999999984   F   F   F
  4.3971882471515853  2.8710224993555040 17.6199312394373067   T   T   T
  3.2138131450374594  4.0547652153907006 21.1135382624993930   T   T   T
  3.2166267238421984  8.1812504957946945 10.2583341276699187   T   T   T
  0.9496435117340393  7.0098445312934823 11.0814690660185526   T   T   T
  1.6607236492049677  7.0278189651196863 13.5384100463511707   T   T   T
  1.7243401457503789  9.0638620394066187 12.2215772733873056   T   T   T
 10.4626464893147944  3.6827607087939302 18.3187949063155848   T   T   T
 11.4286485655104233  3.0993151212820487 15.7432667613515633   T   T   T
  9.2279003595610636  1.7528528189500947 15.2453194299032866   T   T   T
  8.2969330169326110  2.3665046934737743 17.8418747847716368   T   T   T
  9.1867042440721107  4.0239907180332466 16.2146396211155235   T   T   T
 10.8018691068160706  4.8551176337926689 13.4315868926000466   T   T   T
 10.5143726358414540  2.2038457227840911 12.6859503683356323   T   T   T
  9.1176806786082132  2.8883159767997864 10.5375468464203923   T   T   T
  9.2819981066038402  5.4782482831988224 11.0402271838972741   T   T   T
 11.3386884069052716  4.0547254053271855 11.1609281109800875   T   T   T
  4.1558051918588736  4.5564556388833903 10.7686106936780934   T   T   T
  4.2945783707389236  1.6768460086648900 10.6106333461264484   T   T   T
  2.2719654890461753  1.6301534585013422 12.3098448550716864   T   T   T
  2.2817990291106245  4.2761454670633245 12.6471256877793312   T   T   T
  2.2539717456922537  3.0965724359940721 10.3516745680394582   T   T   T
  3.6829844506618286  5.4025129015013960 18.8758338543808506   T   T   T
  4.9042279999999998  2.6830460000000005  0.8160649999999997   F   F   F
  6.0903813291061235  6.5772597405113542 11.3535705349267779   T   T   T
  1.9909349999999999  7.7290169999999998  0.8160649999999997   F   F   F
  6.6750020806631118  4.8531843035960174  5.4353251012975070   T   T   T
  0.8339566194024646  4.8982928981219702  5.4428701735915652   T   T   T
  9.5443894791164414  9.9432508985273831  5.7225283726492524   T   T   T
  3.9328017565934901  9.9812387669992564  5.7721791280776218   T   T   T
 10.7308129999999977  2.6830460000000005  0.8160649999999997   F   F   F
  1.9731259211935166  3.9337310567101835  7.3572602305196471   T   T   T
 10.6823013621024874  8.9324418503441763  7.6594875933766478   T   T   T
  4.7364527677630237  8.8674821299500888  7.7379644925898798   T   T   T
  7.8175200000000000  7.7290169999999998  0.8160649999999997   F   F   F
  7.6802081350895941  4.2120416621981009  7.5312337302292800   T   T   T
  9.0039738966772820  0.8457221083839350  7.8613008276085106   T   T   T
  7.1267552768422382 -1.0240235561851354 17.4493616612368250   T   T   T
  3.0442394442093068  2.5885221709571082  7.8417629353289948   T   T   T
  9.0932197536823338  6.0701914165251267 18.0147775141099800   T   T   T
  7.1586881905054964  1.0249670194157434  5.4300272982077198   T   T   T
  4.3014776158807759  2.8291542440690347 15.3939393358517176   T   T   T
  4.1123295990210211  6.0499142688946046  5.0382332724627661   T   T   T
  0.7040342586042099  6.2851050248310916 16.1629943489843377   T   T   T
  9.8954210994014851  6.2182596968807173  5.1058795469593283   T   T   T
  3.3029238896417192  1.1693709476283554  8.7498356962133510   T   T   T
  0.2619764011854074  5.9610397509188688  7.7850311407507835   T   T   T
  3.6844579999999993  8.7067730000000001  1.9334299999999995   F   F   F
  1.6121010000000000  9.9032490000000006  0.0000000000000000   F   F   F
  7.4386859999999997  9.9032490000000006  0.0000000000000000   F   F   F
  4.5253930000000002  4.8572780000000000  0.0000000000000000   F   F   F
 10.3519780000000008  4.8572780000000000  0.0000000000000000   F   F   F
  7.3025920976558787  6.7994975726282885  8.0612555155063070   T   T   T
  9.5110430000000008  8.7067730000000001  1.9334299999999995   F   F   F
  0.7711660000000000  3.6608019999999999  1.9334299999999995   F   F   F
  6.5977509999999988  3.6608019999999999  1.9334299999999995   F   F   F
  8.3777348215818304  5.4783093002184380  5.3556716516457659   T   T   T
  9.5110430000000008  9.6740829999999995  3.3038509999999990   F   F   F
  0.7711660000000000  4.6281119999999998  3.3038509999999990   F   F   F
  5.8482632642490309  5.9404191271485258  7.8839345546962170   T   T   T
  9.4415619086508080 -1.0315548490910864 16.7121950000748001   T   T   T
  3.5414942468168249  1.1459835157865563  7.0789290865621473   T   T   T
 -1.6629561828355346  1.3091801549773538 20.6107378318491818   T   T   T
  8.6733279999999997  8.2231179999999995  3.3038509999999990   F   F   F
  2.6033467721004819  1.5802548891410826 15.1779496527918916   T   T   T
  5.7600360000000004  3.1771470000000002  3.3038509999999990   F   F   F
  3.9873022076762989  5.5860903089930858 13.9620394372262684   T   T   T
 11.5866209999999992  3.1771470000000002  3.3038509999999990   F   F   F
 -1.6672915617623580  7.7885895081272363 19.0789587997250685   T   T   T
  4.6298892450627003  1.9875943470244528  8.0314253236632780   T   T   T
  2.2250504090992185  5.2275576956256220 15.5301009482068189   T   T   T
 10.3947485387868532  1.8188137937545950  7.7690200178850954   T   T   T
 11.2459042457537031  8.1644199531110058 16.0403782495492031   T   T   T
  1.6657824535648131  6.9156732698789458  7.9499606917335299   T   T   T
 10.1993660123590644  9.9197416016508466 19.2171755570439338   T   T   T
  6.2297889169545524  6.6209481399630805  9.3403580442911007   T   T   T
  7.7238700851682704  2.8700692363159983 19.2935955679571336   T   T   T
  3.6844579999999993  9.6740829999999995  3.3038509999999990   F   F   F
 10.6668304026388139  0.9051839293937084 13.6807659991354349   T   T   T
  9.1083117771988231  2.3300608840402970  8.7048037770221551   T   T   T
  0.5426178058886524 10.9254650139523815 15.0998623863155252   T   T   T
  5.7984804437293427  7.6350578603241992  8.0877631246572417   T   T   T
  7.2154113528020840  5.2542464612433513 17.7990192812379533   T   T   T
 12.3328411182959901  6.6642581073512286  9.2836992746448495   T   T   T
  6.3027727852110100 13.8003558248770002 14.1373916238526185   T   T   T
  6.5977509999999988  4.6281119999999998  3.3038509999999990   F   F   F
  5.5258415264167535  4.3141319546831562 16.6129797053647437   T   T   T
  8.9814291202122032  2.3208118647509912  7.0128040142266714   T   T   T
  0.1005477185975660  7.6384393813318692  8.0087347988104227   T   T   T
  5.7568149999999996  9.9032490000000006  0.0000000000000000   F   F   F
  1.1502050621347828  0.9265769906461611  4.8086619116231848   T   T   T
  2.8435229999999998  4.8572780000000000  0.0000000000000000   F   F   F
  9.5110430000000008  6.3138210000000008  0.0000000000000000   F   F   F
  3.6844579999999993  6.3138210000000008  0.0000000000000000   F   F   F
  3.6801252960785322  4.6283963826453363  4.2247239419853493   T   T   T
  0.9188965667756471  9.3949629208711833  4.4910380947670383   T   T   T
  6.5977509999999988  1.2678499999999999  0.0000000000000000   F   F   F
  7.1338930198966857  9.4009313426677501  5.3230082589873229   T   T   T
  6.4526138030806210  0.2956112624101558  4.1258864205206747   T   T   T
 11.3018588217703098  0.2011873828904334  5.1714534107052534   T   T   T
  2.5465850837758532  5.4325430194945117  5.1725634141359338   T   T   T
  2.8467430000000000  8.2231179999999995  3.3038509999999990   F   F   F
  4.5221730000000004  8.2231179999999995  3.3038509999999990   F   F   F
 10.3487580000000001  8.2231179999999995  3.3038509999999990   F   F   F
  9.5404165758860007  4.6724151972895873  4.4405477797323165   T   T   T
  9.7562703877831733  4.8999193819422082  6.1048967509428005   T   T   T
  3.8855604137388475  4.6473367196396289  5.8822752244963503   T   T   T
  5.7042289075776749  0.1912938801503175  5.6021004230845319   T   T   T
  1.0572160926041503 -0.1555851488917938  6.0673160688274255   T   T   T
  1.6088800000000001  3.1771470000000002  3.3038509999999990   F   F   F
  7.4354649999999989  3.1771470000000002  3.3038509999999990   F   F   F
  9.5110430000000008  5.3427920000000011  1.3692119999999997   F   F   F
  3.6844579999999993  5.3427920000000011  1.3692119999999997   F   F   F
  6.5977509999999988  0.2968220000000000  1.3692119999999997   F   F   F
  0.7711660000000000  0.2968220000000000  1.3692119999999997   F   F   F
  5.6093253097312932  6.0813713633557462 12.0289334942387836   T   T   T
  8.6701080000000008  4.8572780000000000  0.0000000000000000   F   F   F
  0.7711660000000000  1.2678499999999999  0.0000000000000000   F   F   F
 11.5833999999999993  9.9032490000000006  0.0000000000000000   F   F   F
  2.6198125973324244  7.4745505902128082 11.9608155301104642   T   T   T
  3.8367618231155718  8.1771143525040397 17.1934182483210165   T   T   T
  9.7322704565633895  3.9089795494379183 12.0798376888244405   T   T   T
  3.4554665917632388  3.0064316119549899 11.7704140761606482   T   T   T
  7.2534010343831019  7.7195940030212418 13.9326571403718731   T   T   T
  4.0204010554240774  3.5952776544962819 19.4418946730615190   T   T   T
 10.0428241930286344  2.5347486560077481 16.8348045501471582   T   T   T
  9.3746890472283990  1.8188502367046138  7.8474417618421839   T   T   T
  3.6259731220107558  1.7235222953794163  7.9307917566629271   T   T   T
  6.5977509999999988  3.6608019999999999  2.9597559999999996   F   F   F
  0.7711660000000000  3.6608019999999999  2.9597559999999996   F   F   F
  0.6855151333523204  0.0661467718978009  5.1349348130665842   T   T   T
  0.7711660000000000  0.2968220000000000  0.3425449999999998   F   F   F
  3.6844579999999993  8.7067730000000001  2.9597559999999996   F   F   F
  9.5110430000000008  5.3427920000000011  0.3425449999999998   F   F   F
  6.2984402599072746  6.7533629968857474  8.3411464962961226   T   T   T
  6.5977509999999988  0.2968220000000000  0.3425449999999998   F   F   F
  9.5110430000000008  8.7067730000000001  2.9597559999999996   F   F   F
  9.3956517895473315  5.3200195458095880  5.2381390474011988   T   T   T
  3.5527411573050989  5.1890240141833779  5.0764083590248275   T   T   T
  6.6139810781544330  0.1923696319444064  5.1208158377618984   T   T   T
  0.6641016459747996  6.7940479314127291  8.2576305448842433   T   T   T
  3.6844579999999993  5.3427920000000011  0.3425449999999998   F   F   F
  9.3844039145768701  8.4833075203368384  6.6590259875772340   T   T   T
  3.6844579999999993  1.9788120000000000  1.8016859999999997   F   F   F
  9.5110430000000008  1.9788120000000000  1.8016859999999997   F   F   F
  0.7711660000000000  7.0247830000000011  1.8016859999999997   F   F   F
  6.5977509999999988  7.0247830000000011  1.8016859999999997   F   F   F
  3.5538529723986003  8.4717422864757346  6.5472937027805669   T   T   T
  0.6442099484078792  3.4639846187227494  6.3700617408652080   T   T   T
  6.5036510779636689  3.5326297889237264  6.5579154391929135   T   T   T
