H  N  F  Si I 
 1.0000000000000000
    11.6531699554687993    0.0000000000000000    0.0000000000000000
     0.0000000000000000   10.0919412160536002    0.0000000000000000
     0.0000000000000000    0.0000000000000000   38.5094320000000039
 H   N   F   Si  I  
  83  16 102   8   7
Selective dynamics
Cartesian
  6.5977509999999988  4.6281119999999998  3.3038509999999990   F   F   F
  2.8410206271256735  1.7867299368036793 15.2865458648409263   T   T   T
  8.6733279999999997  8.2231179999999995  3.3038509999999990   F   F   F
 -1.4095942617946124  1.0536780148455573 20.9794721364539178   T   T   T
  3.6844579999999993  9.6740829999999995  3.3038509999999990   F   F   F
  7.1277882660973670  2.8736148494233071 19.4797561939191048   T   T   T
  6.3974294268258944  6.8065694149702480  9.4600240046978392   T   T   T
 10.4755052399172968  9.6569552102484888 19.5828955934204032   T   T   T
  1.6605377285323113  6.8979875725114912  7.9834728445348668   T   T   T
 10.9230612699790388  8.3151875064903358 15.7032354926523912   T   T   T
 10.4130574460910239  1.9285090041691468  7.9907480727546520   T   T   T
  2.3374238453054645  5.7569745916972455 15.7951085193114018   T   T   T
  5.7600360000000004  3.1771470000000002  3.3038509999999990   F   F   F
  6.3453170694383454 13.2776261704935177 14.0024413140908308   T   T   T
 12.4355203908391783  6.7876215784862897  9.4160474555621008   T   T   T
  7.1317332573393806  5.5512482796935716 17.9446848424843033   T   T   T
  5.8839352811833932  7.7644160023131006  8.1541496868214818   T   T   T
  0.9957420372948798 11.1898639159931879 14.9960218045969693   T   T   T
  9.0701939719508591  2.3825626085576381  8.9393882977875947   T   T   T
 11.0887046797820581  1.3620717394056827 13.6623476596986020   T   T   T
  3.6844579999999993  6.3138210000000008  0.0000000000000000   F   F   F
  9.5110430000000008  6.3138210000000008  0.0000000000000000   F   F   F
  2.8435229999999998  4.8572780000000000  0.0000000000000000   F   F   F
  9.4010998799761616 -0.8694990463321949 16.8477433085664252   T   T   T
  3.3687199136525718  1.1946682623918516  8.7119718867528615   T   T   T
  9.8640134950234799  6.2176519149883598  5.1853524418856800   T   T   T
  7.4287386353842741  7.0251206532782238  8.1253360476868242   T   T   T
 10.3519780000000008  4.8572780000000000  0.0000000000000000   F   F   F
  4.5253930000000002  4.8572780000000000  0.0000000000000000   F   F   F
  7.4386859999999997  9.9032490000000006  0.0000000000000000   F   F   F
  1.6121010000000000  9.9032490000000006  0.0000000000000000   F   F   F
  3.6844579999999993  8.7067730000000001  1.9334299999999995   F   F   F
  0.2436409506635573  5.9498548843547452  8.0473287061013146   T   T   T
  3.5018864143571524  1.2834571705189415  7.0517837240929726   T   T   T
  9.0402348860919908  0.9034235717632976  8.0983677185113567   T   T   T
  6.0303927203572929  6.0869532937733055  7.9906792566157865   T   T   T
  0.7711660000000000  4.6281119999999998  3.3038509999999990   F   F   F
  9.5110430000000008  9.6740829999999995  3.3038509999999990   F   F   F
  8.4069794854189208  5.3388525672766152  5.3654845038686529   T   T   T
  6.5977509999999988  3.6608019999999999  1.9334299999999995   F   F   F
  0.7711660000000000  3.6608019999999999  1.9334299999999995   F   F   F
  4.6500195686197188  2.0473902900680883  8.0097602822273526   T   T   T
 -1.2551704653585432  7.6104965736988364 19.0111424275332439   T   T   T
 11.5866209999999992  3.1771470000000002  3.3038509999999990   F   F   F
  4.0550802061561413  5.7971628306412200 14.5052340835052380   T   T   T
 11.5833999999999993  9.9032490000000006  0.0000000000000000   F   F   F
  4.5221730000000004  8.2231179999999995  3.3038509999999990   F   F   F
  0.7711660000000000  1.2678499999999999  0.0000000000000000   F   F   F
  8.6701080000000008  4.8572780000000000  0.0000000000000000   F   F   F
  5.4829365971829178  5.5654743073632504 11.2401708041130171   T   T   T
  0.7711660000000000  0.2968220000000000  1.3692119999999997   F   F   F
  6.5977509999999988  0.2968220000000000  1.3692119999999997   F   F   F
  3.6844579999999993  5.3427920000000011  1.3692119999999997   F   F   F
  9.5110430000000008  5.3427920000000011  1.3692119999999997   F   F   F
  7.4354649999999989  3.1771470000000002  3.3038509999999990   F   F   F
  5.7568149999999996  9.9032490000000006  0.0000000000000000   F   F   F
  0.4920973046918358  6.5496555501916269 15.6288965727837912   T   T   T
  4.0862736686029217  6.1715853919736690  5.0344049752405997   T   T   T
  4.8026492177086837  2.8474895299878593 15.4111746961461478   T   T   T
  7.0266900149763059  1.0746425729369764  5.4370409543093583   T   T   T
  9.0993023846116987  6.4150527651645763 18.1079736662349369   T   T   T
  3.0472285968273822  2.6620921657231955  7.9202848165909536   T   T   T
  7.3005369959858024 -0.9423019313054186 17.6173878814147962   T   T   T
  9.5110430000000008  8.7067730000000001  1.9334299999999995   F   F   F
  9.6738310875700968  4.6721320703053379  4.4774562987668505   T   T   T
  8.9450357658843735  2.3466470093347991  7.2682756619864666   T   T   T
  5.8762680170864741  4.2098333855318479 16.7372780102057384   T   T   T
  2.8467430000000000  8.2231179999999995  3.3038509999999990   F   F   F
  2.6119110233469036  5.3688900237091559  5.3117943413740303   T   T   T
 11.2824600794042951  0.2470925954693962  5.4108503548844267   T   T   T
  6.5209950220023511  0.2777041558692673  4.0579975117113074   T   T   T
  0.1373485343397609  7.6499095700499726  8.1064709282054288   T   T   T
  1.0948916110087319  1.0736447161619818  5.1442491261576206   T   T   T
 10.3487580000000001  8.2231179999999995  3.3038509999999990   F   F   F
  7.0351244882051676  9.4600685277149630  5.3739777647764040   T   T   T
  6.5977509999999988  1.2678499999999999  0.0000000000000000   F   F   F
  0.8429531502734988  9.6107272030023569  4.4865530584692372   T   T   T
  3.8126533262529962  4.6097725447949234  4.4091665318428381   T   T   T
  1.6088800000000001  3.1771470000000002  3.3038509999999990   F   F   F
  1.0655142712967420 -0.2745441855731066  6.1298163213175307   T   T   T
  5.5545346587065687  0.2182865524084178  5.4174580383750115   T   T   T
  4.0378737487952048  4.8685985552192461  6.0573304702879307   T   T   T
  9.8264018318157955  4.8504135432546045  6.1315873284713813   T   T   T
  9.5110430000000008  5.3427920000000011  0.3425449999999998   F   F   F
  3.6844579999999993  8.7067730000000001  2.9597559999999996   F   F   F
  0.7711660000000000  0.2968220000000000  0.3425449999999998   F   F   F
  0.6544479500779706  0.1462891874980235  5.2784489231657927   T   T   T
  6.4421360303241730  6.9301573893780466  8.4340583515585283   T   T   T
  0.7711660000000000  3.6608019999999999  2.9597559999999996   F   F   F
  6.5977509999999988  3.6608019999999999  2.9597559999999996   F   F   F
  3.6363413833069629  1.8044491096867163  7.9329769605987490   T   T   T
  9.3774156713104180  1.8892691541535909  8.0882502619622798   T   T   T
  6.5977509999999988  0.2968220000000000  0.3425449999999998   F   F   F
  9.5110430000000008  8.7067730000000001  2.9597559999999996   F   F   F
  9.4402966123825376  5.2739403307351456  5.2756799834689598   T   T   T
  3.6355608636031516  5.2545646923363574  5.1883994143111840   T   T   T
  6.5358051725866346  0.2353580671958306  5.0805613750086192   T   T   T
  0.7002598133770755  6.8207027013795045  8.3865648428158437   T   T   T
  3.6844579999999993  5.3427920000000011  0.3425449999999998   F   F   F
  6.4539635509994460 13.0559197887980556 13.0761129984874689   T   T   T
  5.3779810000000001  7.7290169999999998  0.8160649999999997   F   F   F
 11.2045659999999998  7.7290169999999998  0.8160649999999997   F   F   F
  6.2862567090110399  2.3414886358933695  7.7670241241634681   T   T   T
  0.4538089376571198  2.1608928837773740  7.5833313817580912   T   T   T
  0.9720014263602937  5.7069194970029367 15.8766176891074853   T   T   T
  1.8720662771060639  3.1737538244958134 19.2223818847736325   T   T   T
  4.1703870947057187  8.6394443824910727 12.5780557615574899   T   T   T
  3.5156375750974846 10.0149699154591012 17.8445272573819658   T   T   T
  2.2565104548417105  7.8986302737659084 17.5077462691930243   T   T   T
  3.9208537737661286  8.9142992420044731 15.6482645572752919   T   T   T
  4.7836590864134676  7.7917743940743440  5.5827899047007561   T   T   T
  4.9051039999999997  1.2740720000000001  2.8003459999999984   F   F   F
  7.7352615371303468  6.1784052898003692 18.4075930452680652   T   T   T
  8.2912739999999978  2.6830460000000005  0.8160649999999997   F   F   F
  5.9646332158801059  4.7422424479155687 17.5551393404426825   T   T   T
 -1.4983399948526037  1.3127756005053317 21.9057279679295291   T   T   T
 10.2737262133188239 -0.6678024696531155 16.4338786715763874   T   T   T
  8.2755576605923178 -0.9426035425536333 17.7891478637652796   T   T   T
 10.0481077633249409  6.7046022697767000 18.0071187287806715   T   T   T
  5.6873727604396747  3.3396350711874199 15.5095917562545669   T   T   T
  4.5741780872321094  5.8621595276627207 13.6625010280649573   T   T   T
 -0.9939278861559994  8.2412702821770409 19.7426047580982029   T   T   T
  3.3589660077217562  5.7521171314235904 15.7817538216476194   T   T   T
  8.2053445750932923  7.9790073698454673 12.5121935682854204   T   T   T
 10.3940945763636119 10.6481294483945437 19.5526346780259104   T   T   T
  6.5292186541707595  3.1903556813768805 20.1547445474016946   T   T   T
 11.6588941385427738  0.6989780948833358 14.1001893315496378   T   T   T
  4.1871013752805091  8.1695005576755246 19.3693384776091122   T   T   T
  7.6403928479064618  5.5969323415515877 13.7074197110657447   T   T   T
  6.5977509999999988  5.6163140000000000  0.8160649999999997   F   F   F
  2.4646889999999999  2.6830460000000005  0.8160649999999997   F   F   F
  0.7711660000000000  5.6163140000000000  0.8160649999999997   F   F   F
 11.2036899999999999  6.3200430000000001  2.8003459999999984   F   F   F
  5.3771050000000002  6.3200430000000001  2.8003459999999984   F   F   F
  8.2903979999999997  1.2740720000000001  2.8003459999999984   F   F   F
  2.4638130000000000  1.2740720000000001  2.8003459999999984   F   F   F
 11.2012291073392394  4.4329597150519282  7.4918022547732557   T   T   T
  5.2704280334823137  4.5426064275861746  7.4061609184973500   T   T   T
  8.3593956827648430  9.4502855853796497  7.7567133309828371   T   T   T
  6.9579054538828879  9.2965057763629950 14.4557179957737567   T   T   T
  5.8737900447034974  9.3045590146106925 17.5482011965781695   T   T   T
 11.4358422036351612  7.6746257779540397 15.1598664857899816   T   T   T
  8.6342564189154150  7.5246208200741922 14.9237660032348796   T   T   T
  9.1705395220134793  7.1636795013034060  7.5840451528019894   T   T   T
  3.2853016353157760  7.0628399281144656  7.3819090325604124   T   T   T
 11.0883948438897786  2.9879459766272620  5.5436409126951434   T   T   T
  5.3572376053725312  2.9198272394783165  5.6028613083722796   T   T   T
  8.0710116016453686  8.1773882024929989  5.6872699960362931   T   T   T
  2.4127064689303452  8.0644612072645803  5.3558983176129420   T   T   T
  3.6844579999999993  3.3882919999999999  2.8003459999999984   F   F   F
  9.5110430000000008  3.3882919999999999  2.8003459999999984   F   F   F
 10.7316889999999994  1.2740720000000001  2.8003459999999984   F   F   F
  1.9918110000000000  6.3200430000000001  2.8003459999999984   F   F   F
  7.8183959999999999  6.3200430000000001  2.8003459999999984   F   F   F
  4.7318623011209802  9.0127989413644105  7.6829425094248469   T   T   T
  8.5316011641617919  2.8070528028847757 10.6977309756702148   T   T   T
  3.8306508691722878 10.0383603773814531  5.6844581608988580   T   T   T
  9.6110767396448562 10.0431382348098470  5.7651457578203091   T   T   T
  0.9227117217151664  4.9103215785452559  5.5605422535382205   T   T   T
  6.7375875588612812  4.8946951704786468  5.4961533858846803   T   T   T
  1.9909349999999999  7.7290169999999998  0.8160649999999997   F   F   F
  5.9734936130904526  6.4032669442842058 11.1853982664934701   T   T   T
  4.9042279999999998  2.6830460000000005  0.8160649999999997   F   F   F
  3.1465566098316304  5.2744342165187765 18.8024398199618474   T   T   T
  7.6949894996097097  4.3112319881265977  7.6335759665727343   T   T   T
  7.8175200000000000  7.7290169999999998  0.8160649999999997   F   F   F
  2.0326270913797049  7.3916995821976723 13.6772942504723840   T   T   T
 10.7585166256601070  9.0151869668296349  7.6604197917161745   T   T   T
  1.9737833598681143  4.0440292515814313  7.5683802660545956   T   T   T
 10.7308129999999977  2.6830460000000005  0.8160649999999997   F   F   F
  6.3459163289255534  6.9620969845715184 15.7107524573845989   T   T   T
  9.5110430000000008  0.5703440000000000  0.8160649999999997   F   F   F
  2.3088139768822264  9.3100907574453924  7.4195682744173048   T   T   T
  3.6844579999999993  0.5703440000000000  0.8160649999999997   F   F   F
  0.7711660000000000  8.4342629999999996  2.8003459999999984   F   F   F
 10.4589484478687833  7.7828159668146570  5.5924256563412769   T   T   T
  1.8221498033246843  2.6410146690303455  5.5955517357752411   T   T   T
  7.7539184536232115  2.6816431369178813  5.8422033683168575   T   T   T
  8.7847174646105763  4.0263909452139037 16.6138948020795425   T   T   T
  1.6907787186398204 11.3759172071218515 15.7002111829964104   T   T   T
  1.1617729009123485  6.6864892076816593 11.1694127268085523   T   T   T
  3.3085489572153799  7.9479918092191690 10.1220529905814729   T   T   T
  3.0012355203527363  4.1606288679838341 21.2391424567119813   T   T   T
  3.8486660016783079  2.8429729367872612 17.7444010078569470   T   T   T
  6.5977509999999988  8.4342629999999996  2.8003459999999984   F   F   F
  3.6626367061470986  1.7764975588180094 20.2394006003040019   T   T   T
  3.7068618722291715  2.1805462162166580 14.8785466874980354   T   T   T
 10.0269374291720936  2.1352547667871873 12.8928799656447737   T   T   T
 10.7242465468178185  4.7823832267582222 13.1341075238442375   T   T   T
  9.2583469407844170  5.4028916980994275 10.9604710954133502   T   T   T
  8.0148903004529561  2.2962882064497601 18.2871837340841630   T   T   T
  8.5026840735293359  1.7389863364068960 15.6772393986937821   T   T   T
 10.8907300360943147  2.9509914600013043 15.7924928111550571   T   T   T
  1.8159658090938784  9.0109194416794409 11.8032442530962225   T   T   T
 10.8978459758125847  3.5116114742953868 10.9737349844332215   T   T   T
  4.5337570779193044  4.3897523294987861 11.0012558361849635   T   T   T
  4.1415984290827819  1.5808615550601341 10.7994155380523580   T   T   T
  2.0449814481564714  1.7523446730814973 12.4603441650753251   T   T   T
  2.3395348618671732  4.3577074372533886 12.7657282799366492   T   T   T
  2.3468253275128190  3.2878963636045224 10.4888608196669075   T   T   T
 10.4567269934153479  3.5504190665804649 18.3848072121922606   T   T   T
  6.5176883375215846  3.6172733607056218  6.6443273616396823   T   T   T
  0.6922973026394612  3.5215520874018691  6.5653721796633251   T   T   T
  3.5554123557744761  8.5257204228481545  6.5425565672230750   T   T   T
  6.5977509999999988  7.0247830000000011  1.8016859999999997   F   F   F
  0.7711660000000000  7.0247830000000011  1.8016859999999997   F   F   F
  9.5110430000000008  1.9788120000000000  1.8016859999999997   F   F   F
  3.6844579999999993  1.9788120000000000  1.8016859999999997   F   F   F
  9.4055965084558437  8.5983251581125160  6.6992303025244571   T   T   T
  4.1104694806907220  8.3066320418563340 17.4641292217019597   T   T   T
  2.8070804980802464  7.4511451344368531 11.9228698993694717   T   T   T
  9.4356285940405744  3.8623482861624234 12.0694807013362855   T   T   T
  3.4296047477264300  2.9660523611314251 11.9645780611109434   T   T   T
  7.0544740492078839  7.4580114530932322 13.9422495838340428   T   T   T
  3.6546413739941035  3.5565869865145632 19.5409204921195396   T   T   T
  9.6031381749306544  2.4235491589931919 17.1034726066139200   T   T   T
