H  N  F  Si I 
 1.0000000000000000
    11.6531699554687993    0.0000000000000000    0.0000000000000000
     0.0000000000000000   10.0919412160536002    0.0000000000000000
     0.0000000000000000    0.0000000000000000   37.0821679999999958
 H   N   F   Si  I  
  64  16  83   8   7
Selective dynamics
Cartesian
  8.6733279999999997  8.2231179999999995  3.3038509999999999   F   F   F
  9.5110430000000008  8.7067730000000001  1.9334300000000000   F   F   F
  1.6121010000000000  9.9032490000000006  0.0000000000000000   F   F   F
  0.7711660000000000  3.6608019999999999  1.9334300000000000   F   F   F
  6.5977509999999988  3.6608019999999999  1.9334300000000000   F   F   F
  9.6331540859138549  5.4519752617285091  4.0807206970782977   T   T   T
  9.5110430000000008  9.6740829999999995  3.3038509999999999   F   F   F
  0.7711660000000000  4.6281119999999998  3.3038509999999999   F   F   F
 11.5866209999999992  3.1771470000000002  3.3038509999999999   F   F   F
  5.7600360000000004  3.1771470000000002  3.3038509999999999   F   F   F
  3.6844579999999993  8.7067730000000001  1.9334300000000000   F   F   F
  2.8467430000000000  8.2231179999999995  3.3038509999999999   F   F   F
  8.9978043718916467  6.2805592298747666  5.3861111741187528   T   T   T
  4.5253930000000002  4.8572780000000000  0.0000000000000000   F   F   F
  7.2261629316994602  7.9309571855849050  8.2294540640760623   T   T   T
 10.3519780000000008  4.8572780000000000  0.0000000000000000   F   F   F
  6.5977509999999988  4.6281119999999998  3.3038509999999999   F   F   F
  9.0966054036435491  2.0461378748385619  9.4577417376142261   T   T   T
  3.6844579999999993  9.6740829999999995  3.3038509999999999   F   F   F
  3.6844579999999993  5.3427920000000011  1.3692119999999999   F   F   F
  7.4354649999999989  3.1771470000000002  3.3038509999999999   F   F   F
  3.0287801216786345  6.2789916328096504  5.3613257953216342   T   T   T
  5.7568149999999996  9.9032490000000006  0.0000000000000000   F   F   F
 11.5833999999999993  9.9032490000000006  0.0000000000000000   F   F   F
  2.8435229999999998  4.8572780000000000  0.0000000000000000   F   F   F
  8.6701080000000008  4.8572780000000000  0.0000000000000000   F   F   F
  0.7711660000000000  0.2968220000000000  1.3692119999999999   F   F   F
  6.5977509999999988  0.2968220000000000  1.3692119999999999   F   F   F
  0.7571173394789393  6.6004132734368550  9.0478285607678881   T   T   T
 10.4399880663586018  5.3750414979120817  5.5409665959672552   T   T   T
  4.2036290572964559  5.5219321899571829  4.4085194257335392   T   T   T
  7.4789592843547359  0.2852757164789855  5.1240407124661056   T   T   T
  2.7767302110177536  1.9248486736373427  8.0816885698155314   T   T   T
  7.1069261553115384  6.2238252213124579  8.2754866342329763   T   T   T
  4.2512452635235425  5.3750095835935436  6.0635270473680842   T   T   T
 -0.5194147460719690  7.3156515348952711  8.1632909758713517   T   T   T
  8.3703766720860546  2.2534417983475388  7.9676224028544080   T   T   T
  7.4386859999999997  9.9032490000000006  0.0000000000000000   F   F   F
  0.6954624637220493  0.4582391680341211  4.1238205574137732   T   T   T
  1.6761871989100028  0.3420170325149969  5.4865666119377847   T   T   T
  6.3108420192508579  0.9827953837662526  6.0787195641012071   T   T   T
  4.1978994412199739  0.9672029699479275  8.1547022557791458   T   T   T
  9.5110430000000008  5.3427920000000011  1.3692119999999999   F   F   F
  6.7269694073825859  7.1495132363269507  9.6430835324880260   T   T   T
  0.1657929109519224  9.6386531168944689  5.4304064382380846   T   T   T
  3.0471147027729435  4.5704835165626179  5.2368466637655198   T   T   T
  3.6844579999999993  6.3138210000000008  0.0000000000000000   F   F   F
  9.5110430000000008  6.3138210000000008  0.0000000000000000   F   F   F
  0.7711660000000000  1.2678499999999999  0.0000000000000000   F   F   F
  6.5977509999999988  1.2678499999999999  0.0000000000000000   F   F   F
  6.0080597348746831  0.8189057930714849  4.4398097076197400   T   T   T
  5.7117401709436324  7.1926121054306433  8.2904435097031968   T   T   T
  0.6581332971056748  6.4289116166426226  7.3842671612488902   T   T   T
  9.9230642739143935  2.9179165948428021  8.2487371790765973   T   T   T
  9.7165273537037109  1.2317736326706124  8.1170511888086629   T   T   T
  3.8046649350337249  2.0226944611334723  9.4171147279531873   T   T   T
  6.0191199605631818  9.5428486138125823  5.4207092639953549   T   T   T
  4.5221730000000004  8.2231179999999995  3.3038509999999999   F   F   F
  1.6088800000000001  3.1771470000000002  3.3038509999999999   F   F   F
 11.8823331297491439  1.2454863728745689  5.5245472922662540   T   T   T
 12.7432532712952042  7.9216466797106708  8.0492056103294090   T   T   T
  8.9407944409438631  4.5753518678554128  5.3393742464939065   T   T   T
  4.3050493347152337  2.6560032007535987  7.9650802490586443   T   T   T
 10.3487580000000001  8.2231179999999995  3.3038509999999999   F   F   F
  0.7711660000000000  0.2968220000000000  0.3425450000000000   F   F   F
  0.6939135470468588  0.3979415668894747  5.1459796630220627   T   T   T
  6.6944042627049578  7.1189849348707686  8.6145034379330365   T   T   T
  3.6239232420596901  5.4349432773063899  5.2505443714663631   T   T   T
  9.5044015881166377  5.4202675053537961  5.0956267087011362   T   T   T
  3.6844579999999993  8.7067730000000001  2.9597559999999996   F   F   F
  9.5110430000000008  5.3427920000000011  0.3425450000000000   F   F   F
  3.6844579999999993  5.3427920000000011  0.3425450000000000   F   F   F
  6.5977509999999988  3.6608019999999999  2.9597559999999996   F   F   F
  6.5977509999999988  0.2968220000000000  0.3425450000000000   F   F   F
  3.7687068701188782  1.8842910213181168  8.4016447938440315   T   T   T
  9.2822217481115423  2.1202848940193433  8.4458869672595220   T   T   T
  0.4953197715496682  7.0762414163091059  8.1737176066593005   T   T   T
  0.7711660000000000  3.6608019999999999  2.9597559999999996   F   F   F
  6.4546874924051778  0.3794355359407048  5.2540765991844545   T   T   T
  9.5110430000000008  8.7067730000000001  2.9597559999999996   F   F   F
  6.5977509999999988  8.4342629999999996  2.8003459999999998   F   F   F
  4.7708038302381164  9.5223028937659198  7.7023286950132386   T   T   T
 10.3658906412137455  9.7738018038843233  7.6366600590803655   T   T   T
  1.9947528284250153  4.4540088939677362  7.7434552170736897   T   T   T
  7.5557021447915567  4.5806982167042012  7.6580558439243420   T   T   T
  3.9496616243286873  7.2250235226601944  7.6130157033516577   T   T   T
  5.4494873719169394  3.0458895896250864  5.4388408907145145   T   T   T
  8.3760567131316037  7.8939846477779172  5.5639800744799777   T   T   T
  2.4668393240497974  7.8512101363440472  5.7663631323893574   T   T   T
  3.6844579999999993  3.3882919999999999  2.8003459999999998   F   F   F
  9.5110430000000008  3.3882919999999999  2.8003459999999998   F   F   F
  0.7711660000000000  8.4342629999999996  2.8003459999999998   F   F   F
  1.2816347914870594  4.2178992679204512 18.7454774326707110   T   T   T
 12.3758595268460407  4.2358519160034209 13.9227351363267218   T   T   T
 10.1614428505919854  2.9742477746140734 14.9088371575100194   T   T   T
  9.4917903825449272  7.6370662639526277 10.5818949150029198   T   T   T
 11.0873327690894872  6.2508400227406460 11.9016173375814009   T   T   T
  9.4952199806704929  8.0815149965120838 13.0510830798014190   T   T   T
 11.2036899999999999  6.3200430000000001  2.8003459999999998   F   F   F
  8.2903979999999997  1.2740720000000001  2.8003459999999998   F   F   F
  6.1044826249808333  5.2851289982886280 14.7841188932335825   T   T   T
  6.1499191463068827  2.8608592111380045 15.3404375986504675   T   T   T
  7.6756176673731771  3.9508106729420054 13.3644551891446906   T   T   T
  3.3236587292941242 10.1215431143263359  5.8522732924035967   T   T   T
 11.2045659999999998  7.7290169999999998  0.8160649999999999   F   F   F
 10.7316889999999994  1.2740720000000001  2.8003459999999998   F   F   F
  3.6154095131553996  5.4423074450624354 12.1425508858099303   T   T   T
  4.3408659207833189  7.2070753269235057 10.5300894372256124   T   T   T
  1.9918110000000000  6.3200430000000001  2.8003459999999998   F   F   F
  7.8183959999999999  6.3200430000000001  2.8003459999999998   F   F   F
  2.4646889999999999  2.6830460000000005  0.8160649999999999   F   F   F
  8.2912739999999978  2.6830460000000005  0.8160649999999999   F   F   F
  5.3779810000000001  7.7290169999999998  0.8160649999999999   F   F   F
  7.8175200000000000  7.7290169999999998  0.8160649999999999   F   F   F
  0.4644051583270630  5.1649869540027229  6.0124284276000708   T   T   T
  6.3995077971570398  5.2627974004121034  5.6424422347003294   T   T   T
 11.2766700034703398  2.8799739789349492  5.8412783102047481   T   T   T
  9.5532323287337810  7.4656291854990959  7.6297194869035483   T   T   T
  2.4638130000000000  1.2740720000000001  2.8003459999999998   F   F   F
  1.1483122650563942  2.1666962415574842  7.6014770252536001   T   T   T
 11.2513749623042631  4.0283472904128184  7.9785049920311701   T   T   T
  5.1428793876121581  4.2612395377779606  7.5035133236966960   T   T   T
  4.9042279999999998  2.6830460000000005  0.8160649999999999   F   F   F
 10.7308129999999977  2.6830460000000005  0.8160649999999999   F   F   F
  1.9909349999999999  7.7290169999999998  0.8160649999999999   F   F   F
  6.7798876116760916 -0.2725426258213856 11.0918422840360282   T   T   T
  9.5110430000000008  0.5703440000000000  0.8160649999999999   F   F   F
  3.6844579999999993  0.5703440000000000  0.8160649999999999   F   F   F
  5.4581859149739032  4.7826933521962545 10.5602212995301343   T   T   T
  3.0217170497460275  3.6073257664714973 10.5626264901666609   T   T   T
 12.0447618221357367  8.0532685095269123 17.3749054891738233   T   T   T
 11.3812403102955830 10.3500080177967337 16.6264244025073467   T   T   T
  8.5035452303184016  5.8633611173171110 15.0986639647541985   T   T   T
 11.3461986232567806  6.7085435484883593 15.3826460986324385   T   T   T
  9.6340103379866626  8.2587851442379563 16.7946734082438702   T   T   T
 13.0561776993013012  8.7587568909543503 15.2069827908965856   T   T   T
  9.1764666794200220 10.1704318928377671  5.5504174208854966   T   T   T
  6.6610245504131980  2.3278668645819089  7.3870747583813676   T   T   T
  7.9807021923536938  9.3040409722855930  7.5073784294481403   T   T   T
  2.3788943552339155  9.0883170079698044  7.8516968470437556   T   T   T
  7.8751967639247304  3.3322821116000916  5.5768035019966762   T   T   T
  1.9747986764600374  3.2951781190756253  5.6040356567736866   T   T   T
 10.7601118701995446  8.3345421316556578  5.7161812897856530   T   T   T
  4.8525245119235034  8.2572391629323842  5.6216330082452703   T   T   T
  4.9051039999999997  1.2740720000000001  2.8003459999999998   F   F   F
  2.4645983214820628  2.0488337955373752 19.0869255822384289   T   T   T
  6.9870043220514217  4.7561219182238998 17.0647014333574312   T   T   T
 10.7857027575106272  2.9584156191712356 12.4878352952299831   T   T   T
 10.9446526414158729  0.7072505499907977 13.5797378252203131   T   T   T
 13.1006578445982171  2.0093796177471446 12.6411321958335066   T   T   T
  1.8558730874239346  6.1239430332907379 10.4949121490281705   T   T   T
  9.0097432193480760  5.1668553261169476 10.5960061470598514   T   T   T
  5.3771050000000002  6.3200430000000001  2.8003459999999998   F   F   F
  7.3456907666869506  6.9989008213220325 11.6658419336678385   T   T   T
  0.7711660000000000  5.6163140000000000  0.8160649999999999   F   F   F
  0.1144411273605148  2.6126022096776116 20.2641838764371727   T   T   T
  6.5977509999999988  5.6163140000000000  0.8160649999999999   F   F   F
  4.9402792979815358  0.9118885476140113 12.3210288489464066   T   T   T
  6.0573707055161439  1.8918166338304720 10.1178623364775984   T   T   T
  8.5400036263344479  1.5060519658347364 11.1424395299513996   T   T   T
  7.3778834330433645  0.4657580615220218 13.4012968774221584   T   T   T
 -0.9028814207528836  3.3725027242835943 17.9002961808255989   T   T   T
  1.4647688907677654  2.8167236989510602 16.6890229151681275   T   T   T
  3.6210325231444429  8.6764703732139896  6.7551328862877211   T   T   T
  9.3644035712260685  8.8343081335642264  6.6158648892025944   T   T   T
  9.5110430000000008  1.9788120000000000  1.8016859999999999   F   F   F
  6.5120672823161447  3.8254634495898356  6.5346347938467995   T   T   T
  0.8047194019880588  3.6522113102211566  6.8316155484207099   T   T   T
  6.5977509999999988  7.0247830000000011  1.8016859999999999   F   F   F
  0.7711660000000000  7.0247830000000011  1.8016859999999999   F   F   F
  3.6844579999999993  1.9788120000000000  1.8016859999999999   F   F   F
 11.7848784423569910  2.4233665659745505 13.9571540421014006   T   T   T
  0.7072130872517927  2.4809642704533910 18.4520142770061355   T   T   T
  6.7276185604817398  1.4143075895035373 11.8734703742793197   T   T   T
  9.1897436838529387  6.4721706181432257 12.0136526512291386   T   T   T
  3.6579614881018419  5.4205470576814880 10.2877816934662452   T   T   T
 11.2331871116482347  8.5677644981569987 15.7859856111146950   T   T   T
  7.5183604408044582  4.2093149563416556 15.3168126530343862   T   T   T
