F  H  I  N  Si
 1.0000000000000000
    11.6531699554687993    0.0000000000000000    0.0000000000000000
     0.0000000000000000   10.0919412160536002    0.0000000000000000
     0.0000000000000000    0.0000000000000000   37.0821679999999958
 F   H   I   N   Si 
  83  64   7  16   8
Selective dynamics
Cartesian
  7.8175200000000000  7.7290169999999998  0.8160649999999999   F   F   F
  6.5909086045059286  2.1677496218948256  7.1999170991737769   T   T   T
 11.2045659999999998  7.7290169999999998  0.8160649999999999   F   F   F
  5.3779810000000001  7.7290169999999998  0.8160649999999999   F   F   F
  8.2912739999999978  2.6830460000000005  0.8160649999999999   F   F   F
  2.4646889999999999  2.6830460000000005  0.8160649999999999   F   F   F
  7.8183959999999999  6.3200430000000001  2.8003459999999998   F   F   F
  1.9918110000000000  6.3200430000000001  2.8003459999999998   F   F   F
 10.7316889999999994  1.2740720000000001  2.8003459999999998   F   F   F
  4.9051039999999997  1.2740720000000001  2.8003459999999998   F   F   F
  4.9230305593289341  8.2510206670021073  5.5988491139432934   T   T   T
 10.7045597635927052  8.5848222300692232  5.6765749626997835   T   T   T
  1.8246018541660318  3.4140584678679353  5.5502609139224326   T   T   T
  7.6310027152523059  3.2563841744989008  5.3409645200204681   T   T   T
  2.3033327279011369  9.2816421285200228  7.5383754819814790   T   T   T
  7.8315365107611683  9.5340013816458526  7.2672511328433682   T   T   T
  4.9479445044892048  4.1098591486709299  7.4067936828760859   T   T   T
 11.0765978596093841  4.3088639780634699  7.8639796782205611   T   T   T
  1.0724288487200830  2.5328553062700729  7.7005177690565150   T   T   T
  2.4638130000000000  1.2740720000000001  2.8003459999999998   F   F   F
  9.3714815569989458  7.7418560553582578  7.5274761280599476   T   T   T
 11.1330511009828292  2.8701054268278878  5.8868578779237835   T   T   T
  6.2520073626692758  5.2302329234686971  5.5883285356758368   T   T   T
  3.5936874483866665 10.3318939636389810  5.7538226499315419   T   T   T
  7.3950658994675669  4.4285905697734744  7.5062848803598206   T   T   T
  1.8203049062075471  4.8577398114058781  7.4451765720693892   T   T   T
 10.2239072099094219 10.0063060066049019  7.5901170597952596   T   T   T
  4.6994088536383369  9.4647286454822463  7.7438637390102931   T   T   T
  1.9792503134245292  4.2593635253960587 18.3849939649262595   T   T   T
  1.9909349999999999  7.7290169999999998  0.8160649999999999   F   F   F
 10.7308129999999977  2.6830460000000005  0.8160649999999999   F   F   F
  4.9042279999999998  2.6830460000000005  0.8160649999999999   F   F   F
  6.5977509999999988  8.4342629999999996  2.8003459999999998   F   F   F
  0.7711660000000000  8.4342629999999996  2.8003459999999998   F   F   F
  9.5110430000000008  3.3882919999999999  2.8003459999999998   F   F   F
  3.6844579999999993  3.3882919999999999  2.8003459999999998   F   F   F
  2.4795995980189960  8.1670821963649018  5.4039096352743154   T   T   T
  8.3491121792023790  8.2096762474395639  5.3331702249896162   T   T   T
  5.1762918373043636  2.9926789963318225  5.3370170555838365   T   T   T
  3.6462861976528336  7.2816542314720651  7.3526042373603566   T   T   T
  0.1978778925901825  5.1968121740406570  5.7108879298106929   T   T   T
  8.2903979999999997  1.2740720000000001  2.8003459999999998   F   F   F
 11.2036899999999999  6.3200430000000001  2.8003459999999998   F   F   F
  9.1034996947777262  7.9248474060604890 12.8160653112648699   T   T   T
 10.7410155299521382  5.9836086155085608 11.8147171890795910   T   T   T
  9.6953520000734308  7.8182139638183825 10.4370793597151899   T   T   T
 10.0572879174045973  2.7648064685033855 14.5784133239707128   T   T   T
 12.5279314581111105  4.0414976063577885 14.0146294350740757   T   T   T
 13.2874557413886638  1.7150241422680659 12.9070575043411058   T   T   T
 10.8684125241012168  0.7206612043132457 13.3045334408836666   T   T   T
 11.1181989122324705  3.0263778077751713 12.4196348285105973   T   T   T
  7.0154943221142849  4.4807575366027264 17.0429893500328582   T   T   T
  8.6558192246470860  5.6980794406966719 15.5643142469636508   T   T   T
  7.5858328482104849  4.0925977189011107 13.2450470077505322   T   T   T
  5.8747865302174871  3.1136370052249331 15.1489764736237671   T   T   T
  6.3114270514949400  5.6048442742739217 14.8771731572927060   T   T   T
  1.0171672490531194  2.5223351681978157 16.8808740285187326   T   T   T
 -0.4158423928099620  4.3994767508663966 18.1213920395019414   T   T   T
  0.5339054954721102  3.5978695646434078 20.5295955661258773   T   T   T
  2.1842191239145170  1.8463665307097621 19.2579704097217466   T   T   T
  7.2628242998220953  7.3702200060494105 10.8914140436967166   T   T   T
  5.3771050000000002  6.3200430000000001  2.8003459999999998   F   F   F
  9.0173401886053348  5.5255386102648414  9.8715508764107689   T   T   T
  1.7553517439705595  6.1010649065683396 10.1169455231810126   T   T   T
  3.6844579999999993  0.5703440000000000  0.8160649999999999   F   F   F
  9.5110430000000008  0.5703440000000000  0.8160649999999999   F   F   F
  0.7711660000000000  5.6163140000000000  0.8160649999999999   F   F   F
  6.5977509999999988  5.6163140000000000  0.8160649999999999   F   F   F
  4.8494659527116548  1.7919200781091320 12.1216465901541817   T   T   T
  6.6362006203338026  2.3367496022904857 10.0982884959339128   T   T   T
  8.5402317952184159  1.1562849743846944 11.3294502799515353   T   T   T
  7.0095977831735290  0.8509049360362605 13.6248211671439652   T   T   T
  6.4038523766637896  0.0256260380203088 11.1990642430003184   T   T   T
  9.6314966154427264  8.6883332102948501 15.8555700133605360   T   T   T
 11.0841588598645568  6.5065851677235091 14.9047723481001206   T   T   T
 13.3903570468503794  7.8314322376498726 15.7570275387194503   T   T   T
 12.0362718185218771  9.8979526158445843 16.4304593836198087   T   T   T
 11.2542848864737195  7.4652857047288075 17.2224250447976495   T   T   T
  2.7280908142558618  3.7239494900652823 10.1937295434640287   T   T   T
  5.3450348994583594  4.7690690230895445 10.2931229419128503   T   T   T
  4.1309839123512608  7.2936652340558679 10.1144515132243029   T   T   T
  3.5345003392533934  5.4522965255615503 11.7691206972959002   T   T   T
  9.1703817269028924 10.4538876938376823  5.4053102487444349   T   T   T
  0.6156248277457073  0.6324423091809576  4.0309191223495544   T   T   T
  1.8425933497242550  0.4474045624217097  5.2116529395468350   T   T   T
  6.2930200295798153  0.7819708603346853  6.0914607979685069   T   T   T
  4.1298625034535386  0.8743113107564597  8.2637500391596834   T   T   T
  9.5110430000000008  5.3427920000000011  1.3692119999999999   F   F   F
  3.6844579999999993  5.3427920000000011  1.3692119999999999   F   F   F
  6.5977509999999988  0.2968220000000000  1.3692119999999999   F   F   F
  0.7711660000000000  0.2968220000000000  1.3692119999999999   F   F   F
  8.6701080000000008  4.8572780000000000  0.0000000000000000   F   F   F
  2.8435229999999998  4.8572780000000000  0.0000000000000000   F   F   F
 11.5833999999999993  9.9032490000000006  0.0000000000000000   F   F   F
  5.7568149999999996  9.9032490000000006  0.0000000000000000   F   F   F
  6.5977509999999988  4.6281119999999998  3.3038509999999999   F   F   F
  8.1664547831943111  2.6735766879749399  8.0950288371644881   T   T   T
 -0.5503032321557146  7.6176191443696339  8.0412425946797175   T   T   T
  3.9056366506449729  5.8884159836984766  5.8892321128093563   T   T   T
  7.0901160424610215  6.4375864210571798  7.6399253559693383   T   T   T
  2.7680716803971581  1.8582519938417941  8.1740037723113375   T   T   T
  7.4061515131032047  0.6736702466266575  4.8164530934961514   T   T   T
  4.1361435235076778  5.5709044640033056  4.2611412452746054   T   T   T
 10.1591350630765280  5.2503030959497670  5.5634449316904497   T   T   T
  0.7711660000000000  4.6281119999999998  3.3038509999999999   F   F   F
  9.5110430000000008  9.6740829999999995  3.3038509999999999   F   F   F
  9.4243505038253073  5.5766231791728309  4.1214119093716013   T   T   T
  6.5977509999999988  3.6608019999999999  1.9334300000000000   F   F   F
  0.7711660000000000  3.6608019999999999  1.9334300000000000   F   F   F
  1.6121010000000000  9.9032490000000006  0.0000000000000000   F   F   F
  9.5110430000000008  8.7067730000000001  1.9334300000000000   F   F   F
  3.6844579999999993  8.7067730000000001  1.9334300000000000   F   F   F
 10.3519780000000008  4.8572780000000000  0.0000000000000000   F   F   F
  7.0816741350655343  8.0783880221140514  8.0510820440987807   T   T   T
  4.5253930000000002  4.8572780000000000  0.0000000000000000   F   F   F
  8.8236963078486266  6.3602647288776071  5.4544204398568761   T   T   T
  2.8467430000000000  8.2231179999999995  3.3038509999999999   F   F   F
  8.6733279999999997  8.2231179999999995  3.3038509999999999   F   F   F
  5.7600360000000004  3.1771470000000002  3.3038509999999999   F   F   F
 11.5866209999999992  3.1771470000000002  3.3038509999999999   F   F   F
  3.8411131644305305  1.9330920497763462  9.4928423904364188   T   T   T
  9.3868201771962294  1.4784388406147646  7.9258393700799497   T   T   T
  9.8197590598081153  3.0870653759660369  8.2008786441219996   T   T   T
  0.5987408251593390  6.8122521064255395  7.1033750967687928   T   T   T
  6.6272946113404858  6.9133340166125246  9.1921410668392394   T   T   T
  3.6844579999999993  9.6740829999999995  3.3038509999999999   F   F   F
  9.0591341939068872  2.1272847352263873  9.4261604897280424   T   T   T
  0.7179766789061308  6.7071446950455353  8.7456178120831538   T   T   T
  5.6022325175689529  7.2527543721148549  7.8940261998583869   T   T   T
 12.7533756782765746  8.1754734802841575  7.9833046227105813   T   T   T
  8.5653954652235438  4.6989876337041245  5.2836220674056440   T   T   T
  4.2957981140407204  2.5889457974301489  8.0102255786757990   T   T   T
  1.6088800000000001  3.1771470000000002  3.3038509999999999   F   F   F
 10.3487580000000001  8.2231179999999995  3.3038509999999999   F   F   F
  4.5221730000000004  8.2231179999999995  3.3038509999999999   F   F   F
  6.2170916466991946  9.5743601073513744  5.0245479860146904   T   T   T
  0.2938330062621420  9.7538396830391108  5.3343138472870990   T   T   T
  3.1090008946036565  4.5641656654454827  5.2242929503382651   T   T   T
  3.6844579999999993  6.3138210000000008  0.0000000000000000   F   F   F
  9.5110430000000008  6.3138210000000008  0.0000000000000000   F   F   F
  0.7711660000000000  1.2678499999999999  0.0000000000000000   F   F   F
  6.5977509999999988  1.2678499999999999  0.0000000000000000   F   F   F
  5.7543455732059448  0.9992739311985782  4.5219654844018242   T   T   T
 12.0631098437699578  1.3470580832559711  5.5246546975663016   T   T   T
  2.6163538681474252  6.0849520581308196  4.8475525515501960   T   T   T
  7.4354649999999989  3.1771470000000002  3.3038509999999999   F   F   F
  7.4386859999999997  9.9032490000000006  0.0000000000000000   F   F   F
  0.6999181561899451  2.9565924835045565 18.7097337172023472   T   T   T
  6.7748879527874175  1.7040184082859440 11.8902944672750728   T   T   T
  8.9220985095536420  6.5491086227367061 11.5321195314587914   T   T   T
 11.8022570684446357  2.2580367980433134 13.9291977267148734   T   T   T
  7.4630847578264321  4.1995580437556503 15.2482938268414099   T   T   T
 11.5282074337169131  8.2388371200323647 15.5890876141981813   T   T   T
  3.5599739078896904  5.4510991623384601  9.9082865334241514   T   T   T
  6.5977509999999988  3.6608019999999999  2.9597559999999996   F   F   F
  6.5977509999999988  0.2968220000000000  0.3425450000000000   F   F   F
  3.7677646482882663  1.8097342675885342  8.4756490889559934   T   T   T
  9.1011542352310997  2.3387295934350409  8.4156907754435242   T   T   T
  0.4460933098370294  7.3391466566186052  7.9763956302651540   T   T   T
  0.7711660000000000  3.6608019999999999  2.9597559999999996   F   F   F
  6.5925280806833646  7.1649499011975433  8.1890346148903106   T   T   T
  0.8098132332739838  0.5038026962120306  5.0286195182847644   T   T   T
  0.7711660000000000  0.2968220000000000  0.3425450000000000   F   F   F
  3.6844579999999993  8.7067730000000001  2.9597559999999996   F   F   F
  9.5110430000000008  5.3427920000000011  0.3425450000000000   F   F   F
  3.6844579999999993  5.3427920000000011  0.3425450000000000   F   F   F
  6.4231653081202689  0.4845761885778336  5.0994983637525824   T   T   T
  9.5110430000000008  8.7067730000000001  2.9597559999999996   F   F   F
  9.2481506973632595  5.4730420567367206  5.1142735481395611   T   T   T
  3.4464381751701358  5.5166556559859190  5.0369622272646453   T   T   T
  9.5110430000000008  1.9788120000000000  1.8016859999999999   F   F   F
  6.3035556696394952  3.6837920856361008  6.3950023207816633   T   T   T
  0.6481509328224716  3.8358827258963917  6.7225644746484408   T   T   T
  3.6055982050824165  8.7994071348445466  6.5252878775077017   T   T   T
  6.5977509999999988  7.0247830000000011  1.8016859999999999   F   F   F
  0.7711660000000000  7.0247830000000011  1.8016859999999999   F   F   F
  3.6844579999999993  1.9788120000000000  1.8016859999999999   F   F   F
  9.2729208418760489  9.1309196656916356  6.4700113629807667   T   T   T
